      -----------------------------------------------------------      
     |                   =====================                   |     
     |                           x T B                           |     
     |                   =====================                   |     
     |                         S. Grimme                         |     
     |          Mulliken Center for Theoretical Chemistry        |     
     |                    University of Bonn                     |     
      -----------------------------------------------------------      

   * xtb version 6.7.1pre (5071a88) compiled by 'Marcel@Raven' on 2024-07-23

   xtb is free software: you can redistribute it and/or modify it under
   the terms of the GNU Lesser General Public License as published by
   the Free Software Foundation, either version 3 of the License, or
   (at your option) any later version.
   
   xtb is distributed in the hope that it will be useful,
   but WITHOUT ANY WARRANTY; without even the implied warranty of
   MERCHANTABILITY or FITNESS FOR A PARTICULAR PURPOSE.  See the
   GNU Lesser General Public License for more details.
   
   Cite this work as:
   * C. Bannwarth, E. Caldeweyher, S. Ehlert, A. Hansen, P. Pracht,
     J. Seibert, S. Spicher, S. Grimme, WIREs Comput. Mol. Sci., 2020, 11,
     e01493. DOI: 10.1002/wcms.1493
   
   for GFN2-xTB:
   * C. Bannwarth, S. Ehlert and S. Grimme., J. Chem. Theory Comput., 2019,
     15, 1652-1671. DOI: 10.1021/acs.jctc.8b01176
   for GFN1-xTB:
   * S. Grimme, C. Bannwarth, P. Shushkov, J. Chem. Theory Comput., 2017,
     13, 1989-2009. DOI: 10.1021/acs.jctc.7b00118
   for GFN0-xTB:
   * P. Pracht, E. Caldeweyher, S. Ehlert, S. Grimme, ChemRxiv, 2019, preprint.
     DOI: 10.26434/chemrxiv.8326202.v1
   for GFN-FF:
   * S. Spicher and S. Grimme, Angew. Chem. Int. Ed., 2020, 59, 15665-15673.
     DOI: 10.1002/anie.202004239
   
   for ALPB and GBSA implicit solvation:
   * S. Ehlert, M. Stahn, S. Spicher, S. Grimme, J. Chem. Theory Comput.,
     2021, 17, 4250-4261. DOI: 10.1021/acs.jctc.1c00471
   
   for ddCOSMO and CPCM-X implicit solvation:
   * M. Stahn, S. Ehlert, S. Grimme, J. Phys. Chem. A,
     2023, XX, XXXX-XXXX. DOI: 10.1021/acs.jpca.3c04382
   
   for DFT-D4:
   * E. Caldeweyher, C. Bannwarth and S. Grimme, J. Chem. Phys., 2017,
     147, 034112. DOI: 10.1063/1.4993215
   * E. Caldeweyher, S. Ehlert, A. Hansen, H. Neugebauer, S. Spicher,
     C. Bannwarth and S. Grimme, J. Chem. Phys., 2019, 150, 154122.
     DOI: 10.1063/1.5090222
   * E. Caldeweyher, J.-M. Mewes, S. Ehlert and S. Grimme, Phys. Chem. Chem. Phys.
     2020, 22, 8499-8512. DOI: 10.1039/D0CP00502A
   
   for sTDA-xTB:
   * S. Grimme and C. Bannwarth, J. Chem. Phys., 2016, 145, 054103.
     DOI: 10.1063/1.4959605
   
   in the mass-spec context:
   * V. Asgeirsson, C. Bauer and S. Grimme, Chem. Sci., 2017, 8, 4879.
     DOI: 10.1039/c7sc00601b
   * J. Koopman and S. Grimme, ACS Omega 2019, 4, 12, 15120-15133.
     DOI: 10.1021/acsomega.9b02011
   
   for metadynamics refer to:
   * S. Grimme, J. Chem. Theory Comput., 2019, 155, 2847-2862
     DOI: 10.1021/acs.jctc.9b00143
   
   for SPH calculations refer to:
   * S. Spicher and S. Grimme, J. Chem. Theory Comput., 2021, 17, 1701-1714
     DOI: 10.1021/acs.jctc.0c01306
   
   for ONIOM refer to:
   * C. Plett, A. Katbashev, S. Ehlert, S. Grimme, M. Bursch,
     Phys. Chem. Chem. Phys., 2023, 25, 17860-17868. DOI: 10.1039/D3CP02178E
   
   for DIPRO refer to:
   * J. Kohn, N. Gildemeister, S. Grimme, D. Fazzi, A. Hansen,
     J. Chem. Phys., 2023, just accepted.
   
   for PTB refer to:
   * S. Grimme, M. Mueller, A. Hansen, J. Chem. Phys., 2023, 158, 124111.
     DOI: 10.1063/5.0137838
   
   with help from (in alphabetical order)
   P. Atkinson, C. Bannwarth, F. Bohle, G. Brandenburg, E. Caldeweyher
   M. Checinski, S. Dohm, S. Ehlert, S. Ehrlich, I. Gerasimov, C. Hölzer
   A. Katbashev, J. Kohn, J. Koopman, C. Lavigne, S. Lehtola, F. März, M. Müller,
   F. Musil, H. Neugebauer, J. Pisarek, C. Plett, P. Pracht, F. Pultar,
   J. Seibert, P. Shushkov, S. Spicher, M. Stahn, M. Steiner, T. Strunk,
   J. Stückrath, T. Rose, and J. Unsleber
   
 * started run on 2025/06/23 at 11:31:42.323     
$$$$$$$$$$$$$$$$$$$$$$$$$$$$$$$$$$$$$$$$$$$$$$$$$$$$$$$$$$$$$$$$$$$$$$$$
 CONSTRAINTS & SCANS: DEBUG SECTION
$$$$$$$$$$$$$$$$$$$$$$$$$$$$$$$$$$$$$$$$$$$$$$$$$$$$$$$$$$$$$$$$$$$$$$$$
   ID    Z sym.   atoms
    1    6 C      1, 2, 4
    2    8 O      3, 5, 6
    3    1 H      7-12
$$$$$$$$$$$$$$$$$$$$$$$$$$$$$$$$$$$$$$$$$$$$$$$$$$$$$$$$$$$$$$$$$$$$$$$$

           -------------------------------------------------
          |                Calculation Setup                |
           -------------------------------------------------

          program call               : C:\Users\nkapa\Downloads\xtb-6.7.1pre-windows-x86_64\xtb-6.7.1\bin\xtb.EXE dft_tmp\105.xyz --gfn2 --parallel 8 --verbose
          coordinate file            : dft_tmp\105.xyz
          xtbhome directory          : C:\Users\nkapa\AppData\Roaming\SPB_Data
          path for xtb               : C:\Users\nkapa\Downloads\xtb-6.7.1pre-windows-x86_64\xtb-6.7.1\share\xtb
          xcontrol input file        : dft_tmp\105.xyz
          omp threads                :                     8


           -------------------------------------------------
          |                 G F N 2 - x T B                 |
           -------------------------------------------------

        Reference                      10.1021/acs.jctc.8b01176
      * Hamiltonian:
        H0-scaling (s, p, d)           1.850000    2.230000    2.230000
        zeta-weighting                 0.500000
      * Dispersion:
        s8                             2.700000
        a1                             0.520000
        a2                             5.000000
        s9                             5.000000
      * Repulsion:
        kExp                           1.500000    1.000000
        rExp                           1.000000
      * Coulomb:
        alpha                          2.000000
        third order                    shell-resolved
        anisotropic                    true
        a3                             3.000000
        a5                             4.000000
        cn-shift                       1.200000
        cn-exp                         4.000000
        max-rad                        5.000000


          ...................................................
          :                      SETUP                      :
          :.................................................:
          :  # basis functions                  30          :
          :  # atomic orbitals                  30          :
          :  # shells                           18          :
          :  # electrons                        36          :
          :  max. iterations                   250          :
          :  Hamiltonian                  GFN2-xTB          :
          :  restarted?                      false          :
          :  GBSA solvation                  false          :
          :  PC potential                    false          :
          :  electronic temp.          300.0000000     K    :
          :  accuracy                    1.0000000          :
          :  -> integral cutoff          0.2500000E+02      :
          :  -> integral neglect         0.1000000E-07      :
          :  -> SCF convergence          0.1000000E-05 Eh   :
          :  -> wf. convergence          0.1000000E-03 e    :
          :  Broyden damping             0.4000000          :
          :  net charge                          0          :
          :  unpaired electrons                  0          :
          ...................................................

 iter      E             dE          RMSdq      gap      omega  full diag
   1    -21.7676405 -0.217676E+02  0.466E+00    4.78       0.0  T
   2    -21.8038566 -0.362160E-01  0.239E+00    3.76       1.0  T
   3    -21.8063629 -0.250635E-02  0.152E+00    4.22       1.0  T
   4    -21.8130038 -0.664091E-02  0.200E-01    3.89       1.0  T
   5    -21.8131542 -0.150406E-03  0.851E-02    3.95       1.0  T
   6    -21.8131608 -0.660308E-05  0.252E-02    3.95       1.1  T
   7    -21.8131623 -0.144177E-05  0.106E-02    3.95       2.7  T
   8    -21.8131625 -0.195649E-06  0.368E-03    3.95       7.8  T
   9    -21.8131625 -0.130745E-07  0.102E-03    3.95      28.4  T
  10    -21.8131625 -0.273279E-08  0.492E-04    3.95      58.7  T
  11    -21.8131625 -0.569536E-09  0.238E-04    3.95     121.4  T

   *** convergence criteria satisfied after 11 iterations ***

         #    Occupation            Energy/Eh            Energy/eV
      -------------------------------------------------------------
         1        2.0000           -0.7425704             -20.2064
       ...           ...                  ...                  ...
        12        2.0000           -0.5192173             -14.1286
        13        2.0000           -0.4939344             -13.4406
        14        2.0000           -0.4829767             -13.1425
        15        2.0000           -0.4785626             -13.0224
        16        2.0000           -0.4665764             -12.6962
        17        2.0000           -0.4515993             -12.2886
        18        2.0000           -0.4172897             -11.3550 (HOMO)
        19                         -0.2720951              -7.4041 (LUMO)
        20                         -0.0537318              -1.4621
        21                          0.0425815               1.1587
        22                          0.0765974               2.0843
        23                          0.0980396               2.6678
       ...                                ...                  ...
        30                          0.4468977              12.1607
      -------------------------------------------------------------
                  HL-Gap            0.1451946 Eh            3.9509 eV
             Fermi-level           -0.3446924 Eh           -9.3796 eV

 SCC (total)                   0 d,  0 h,  0 min,  0.011 sec
 SCC setup                      ...        0 min,  0.001 sec (  9.090%)
 Dispersion                     ...        0 min,  0.001 sec (  9.092%)
 classical contributions        ...        0 min,  0.000 sec (  0.000%)
 integral evaluation            ...        0 min,  0.000 sec (  0.000%)
 iterations                     ...        0 min,  0.008 sec ( 72.727%)
 molecular gradient             ...        0 min,  0.001 sec (  9.090%)
 printout                       ...        0 min,  0.000 sec (  0.000%)

         :::::::::::::::::::::::::::::::::::::::::::::::::::::
         ::                     SUMMARY                     ::
         :::::::::::::::::::::::::::::::::::::::::::::::::::::
         :: total energy             -21.663875650804 Eh    ::
         :: gradient norm              0.137271953261 Eh/a0 ::
         :: HOMO-LUMO gap              3.950945588226 eV    ::
         ::.................................................::
         :: HOMO orbital eigv.       -11.355029901442 eV    ::
         :: LUMO orbital eigv.        -7.404084313215 eV    ::
         ::.................................................::
         :: SCC energy               -21.813154416629 Eh    ::
         :: -> isotropic ES            0.072817109482 Eh    ::
         :: -> anisotropic ES          0.001282319861 Eh    ::
         :: -> anisotropic XC         -0.000149174337 Eh    ::
         :: -> dispersion             -0.006029758800 Eh    ::
         :: repulsion energy           0.149278765825 Eh    ::
         :: add. restraining           0.000000000000 Eh    ::
         :: total charge               0.000000000000 e     ::
         ::.................................................::
         :: atomisation energy         3.136962262395 Eh    ::
         :::::::::::::::::::::::::::::::::::::::::::::::::::::

           -------------------------------------------------
          |                Property Printout                |
           -------------------------------------------------

    * Orbital Energies and Occupations

         #    Occupation            Energy/Eh            Energy/eV
      -------------------------------------------------------------
         1        2.0000           -0.7425704             -20.2064
       ...           ...                  ...                  ...
         6        2.0000           -0.6175189             -16.8035
         7        2.0000           -0.5962369             -16.2244
         8        2.0000           -0.5841605             -15.8958
         9        2.0000           -0.5701519             -15.5146
        10        2.0000           -0.5542317             -15.0814
        11        2.0000           -0.5354895             -14.5714
        12        2.0000           -0.5192173             -14.1286
        13        2.0000           -0.4939344             -13.4406
        14        2.0000           -0.4829767             -13.1425
        15        2.0000           -0.4785626             -13.0224
        16        2.0000           -0.4665764             -12.6962
        17        2.0000           -0.4515993             -12.2886
        18        2.0000           -0.4172897             -11.3550 (HOMO)
        19                         -0.2720951              -7.4041 (LUMO)
        20                         -0.0537318              -1.4621
        21                          0.0425815               1.1587
        22                          0.0765974               2.0843
        23                          0.0980396               2.6678
        24                          0.1133278               3.0838
        25                          0.1208036               3.2872
        26                          0.1537047               4.1825
        27                          0.1951774               5.3110
        28                          0.2067132               5.6250
        29                          0.2447631               6.6603
        30                          0.4468977              12.1607
      -------------------------------------------------------------
                  HL-Gap            0.1451946 Eh            3.9509 eV
             Fermi-level           -0.3446924 Eh           -9.3796 eV

     #   Z          covCN         q      C6AA      α(0)
     1   6 C        3.743    -0.118    22.827     6.816
     2   6 C        3.724     0.103    18.987     6.222
     3   8 O        1.652    -0.423    21.293     6.229
     4   6 C        2.688     0.334    21.315     7.556
     5   8 O        0.856    -0.402    21.731     6.250
     6   8 O        1.647    -0.378    20.423     6.100
     7   1 H        0.922     0.064     2.152     2.294
     8   1 H        0.921     0.050     2.319     2.382
     9   1 H        0.921     0.051     2.303     2.373
    10   1 H        0.921     0.083     1.946     2.181
    11   1 H        0.801     0.303     0.714     1.327
    12   1 H        0.796     0.331     0.636     1.254

 Mol. C6AA /au·bohr⁶  :       1223.517728
 Mol. C8AA /au·bohr⁸  :      26140.502917
 Mol. α(0) /au        :         50.984904


Wiberg/Mayer (AO) data.
largest (>0.10) Wiberg bond orders for each atom

 ---------------------------------------------------------------------------
     #   Z sym  total        # sym  WBO       # sym  WBO       # sym  WBO
 ---------------------------------------------------------------------------
     1   6 C    3.991 --     8 H    0.984     9 H    0.984     7 H    0.981
                             2 C    0.980
     2   6 C    3.958 --     3 O    0.997     1 C    0.980     4 C    0.965
                            10 H    0.953
     3   8 O    1.980 --     2 C    0.997    11 H    0.889
     4   6 C    3.909 --     5 O    1.766     6 O    1.123     2 C    0.965
     5   8 O    2.023 --     4 C    1.766     6 O    0.175
     6   8 O    2.191 --     4 C    1.123    12 H    0.863     5 O    0.175
     7   1 H    0.996 --     1 C    0.981
     8   1 H    0.997 --     1 C    0.984
     9   1 H    0.997 --     1 C    0.984
    10   1 H    0.993 --     2 C    0.953
    11   1 H    0.908 --     3 O    0.889
    12   1 H    0.890 --     6 O    0.863
 ---------------------------------------------------------------------------

Topologies differ in total number of bonds
Writing topology from bond orders to xtbtopo.mol

molecular dipole:
                 x           y           z       tot (Debye)
 q only:       -0.306       0.831       0.770
   full:       -0.153       0.908       1.053       3.555
molecular quadrupole (traceless):
                xx          xy          yy          xz          yz          zz
 q only:        4.222       4.576      -3.045       3.225       0.363      -1.177
  q+dip:        6.239       5.270      -4.147       4.651       0.912      -2.092
   full:        5.870       5.463      -4.156       3.937       0.389      -1.714


           -------------------------------------------------
          | TOTAL ENERGY              -21.663875650804 Eh   |
          | GRADIENT NORM               0.137271953261 Eh/α |
          | HOMO-LUMO GAP               3.950945588226 eV   |
           -------------------------------------------------
########################################################################
[WARNING] Runtime exception occurred
-2- restart_readRestart: Dimension missmatch in restart file.
-1- restart_readRestart: Number of electron missmatch in restart file.
########################################################################

------------------------------------------------------------------------
 unit  open   action     filename
  129 false : read       dft_tmp\105.xyz
  129 false : read       dft_tmp\105.xyz
  129 false : read       dft_tmp\105.xyz
  129 false : read       C:\Users\nkapa\Downloads\xtb-6.7.1pre-windows-x86_64\xtb-6.7.1\share\xtb\param_gfn2-xtb.txt
  129 false : read       xtbrestart
  129 false : replaced   charges
  129 false : replaced   wbo
  129 false : replaced   xtbtopo.mol
  129 false : replaced   xtbrestart

------------------------------------------------------------------------
 * finished run on 2025/06/23 at 11:31:42.379     
------------------------------------------------------------------------
 total:
 * wall-time:     0 d,  0 h,  0 min,  0.054 sec
 *  cpu-time:     0 d,  0 h,  0 min,  0.234 sec
 * ratio c/w:     4.340 speedup
 SCF:
 * wall-time:     0 d,  0 h,  0 min,  0.012 sec
 *  cpu-time:     0 d,  0 h,  0 min,  0.125 sec
 * ratio c/w:    10.417 speedup

normal termination of xtb
