17

O 0.806110 -0.735199 -2.244522
C 1.232142 -0.546573 -1.073904
N 2.452857 0.164770 -0.870962
C 0.434564 -1.037012 0.099996
C -0.396456 0.092940 0.732159
N -1.015004 -0.379523 1.972687
C -1.443630 0.609209 -0.222452
O -2.364531 -0.148909 -0.630920
O -1.387410 1.928401 -0.661111
H 2.999596 0.517287 -1.687642
H 2.810480 0.343445 0.093621
H -0.229598 -1.871123 -0.217537
H 1.136517 -1.444519 0.859606
H 0.291682 0.929056 0.990361
H -1.535349 0.414892 2.412124
H -1.712468 -1.128610 1.754067
H -2.079501 2.291465 -1.305572
