      -----------------------------------------------------------      
     |                   =====================                   |     
     |                           x T B                           |     
     |                   =====================                   |     
     |                         S. Grimme                         |     
     |          Mulliken Center for Theoretical Chemistry        |     
     |                    University of Bonn                     |     
      -----------------------------------------------------------      

   * xtb version 6.7.1pre (5071a88) compiled by 'Marcel@Raven' on 2024-07-23

   xtb is free software: you can redistribute it and/or modify it under
   the terms of the GNU Lesser General Public License as published by
   the Free Software Foundation, either version 3 of the License, or
   (at your option) any later version.
   
   xtb is distributed in the hope that it will be useful,
   but WITHOUT ANY WARRANTY; without even the implied warranty of
   MERCHANTABILITY or FITNESS FOR A PARTICULAR PURPOSE.  See the
   GNU Lesser General Public License for more details.
   
   Cite this work as:
   * C. Bannwarth, E. Caldeweyher, S. Ehlert, A. Hansen, P. Pracht,
     J. Seibert, S. Spicher, S. Grimme, WIREs Comput. Mol. Sci., 2020, 11,
     e01493. DOI: 10.1002/wcms.1493
   
   for GFN2-xTB:
   * C. Bannwarth, S. Ehlert and S. Grimme., J. Chem. Theory Comput., 2019,
     15, 1652-1671. DOI: 10.1021/acs.jctc.8b01176
   for GFN1-xTB:
   * S. Grimme, C. Bannwarth, P. Shushkov, J. Chem. Theory Comput., 2017,
     13, 1989-2009. DOI: 10.1021/acs.jctc.7b00118
   for GFN0-xTB:
   * P. Pracht, E. Caldeweyher, S. Ehlert, S. Grimme, ChemRxiv, 2019, preprint.
     DOI: 10.26434/chemrxiv.8326202.v1
   for GFN-FF:
   * S. Spicher and S. Grimme, Angew. Chem. Int. Ed., 2020, 59, 15665-15673.
     DOI: 10.1002/anie.202004239
   
   for ALPB and GBSA implicit solvation:
   * S. Ehlert, M. Stahn, S. Spicher, S. Grimme, J. Chem. Theory Comput.,
     2021, 17, 4250-4261. DOI: 10.1021/acs.jctc.1c00471
   
   for ddCOSMO and CPCM-X implicit solvation:
   * M. Stahn, S. Ehlert, S. Grimme, J. Phys. Chem. A,
     2023, XX, XXXX-XXXX. DOI: 10.1021/acs.jpca.3c04382
   
   for DFT-D4:
   * E. Caldeweyher, C. Bannwarth and S. Grimme, J. Chem. Phys., 2017,
     147, 034112. DOI: 10.1063/1.4993215
   * E. Caldeweyher, S. Ehlert, A. Hansen, H. Neugebauer, S. Spicher,
     C. Bannwarth and S. Grimme, J. Chem. Phys., 2019, 150, 154122.
     DOI: 10.1063/1.5090222
   * E. Caldeweyher, J.-M. Mewes, S. Ehlert and S. Grimme, Phys. Chem. Chem. Phys.
     2020, 22, 8499-8512. DOI: 10.1039/D0CP00502A
   
   for sTDA-xTB:
   * S. Grimme and C. Bannwarth, J. Chem. Phys., 2016, 145, 054103.
     DOI: 10.1063/1.4959605
   
   in the mass-spec context:
   * V. Asgeirsson, C. Bauer and S. Grimme, Chem. Sci., 2017, 8, 4879.
     DOI: 10.1039/c7sc00601b
   * J. Koopman and S. Grimme, ACS Omega 2019, 4, 12, 15120-15133.
     DOI: 10.1021/acsomega.9b02011
   
   for metadynamics refer to:
   * S. Grimme, J. Chem. Theory Comput., 2019, 155, 2847-2862
     DOI: 10.1021/acs.jctc.9b00143
   
   for SPH calculations refer to:
   * S. Spicher and S. Grimme, J. Chem. Theory Comput., 2021, 17, 1701-1714
     DOI: 10.1021/acs.jctc.0c01306
   
   for ONIOM refer to:
   * C. Plett, A. Katbashev, S. Ehlert, S. Grimme, M. Bursch,
     Phys. Chem. Chem. Phys., 2023, 25, 17860-17868. DOI: 10.1039/D3CP02178E
   
   for DIPRO refer to:
   * J. Kohn, N. Gildemeister, S. Grimme, D. Fazzi, A. Hansen,
     J. Chem. Phys., 2023, just accepted.
   
   for PTB refer to:
   * S. Grimme, M. Mueller, A. Hansen, J. Chem. Phys., 2023, 158, 124111.
     DOI: 10.1063/5.0137838
   
   with help from (in alphabetical order)
   P. Atkinson, C. Bannwarth, F. Bohle, G. Brandenburg, E. Caldeweyher
   M. Checinski, S. Dohm, S. Ehlert, S. Ehrlich, I. Gerasimov, C. Hölzer
   A. Katbashev, J. Kohn, J. Koopman, C. Lavigne, S. Lehtola, F. März, M. Müller,
   F. Musil, H. Neugebauer, J. Pisarek, C. Plett, P. Pracht, F. Pultar,
   J. Seibert, P. Shushkov, S. Spicher, M. Stahn, M. Steiner, T. Strunk,
   J. Stückrath, T. Rose, and J. Unsleber
   
 * started run on 2025/06/23 at 11:31:43.262     
$$$$$$$$$$$$$$$$$$$$$$$$$$$$$$$$$$$$$$$$$$$$$$$$$$$$$$$$$$$$$$$$$$$$$$$$
 CONSTRAINTS & SCANS: DEBUG SECTION
$$$$$$$$$$$$$$$$$$$$$$$$$$$$$$$$$$$$$$$$$$$$$$$$$$$$$$$$$$$$$$$$$$$$$$$$
   ID    Z sym.   atoms
    1    6 C      1-3, 5, 6
    2    7 N      4, 7
    3    1 H      8-13
$$$$$$$$$$$$$$$$$$$$$$$$$$$$$$$$$$$$$$$$$$$$$$$$$$$$$$$$$$$$$$$$$$$$$$$$

           -------------------------------------------------
          |                Calculation Setup                |
           -------------------------------------------------

          program call               : C:\Users\nkapa\Downloads\xtb-6.7.1pre-windows-x86_64\xtb-6.7.1\bin\xtb.EXE dft_tmp\113.xyz --gfn2 --parallel 8 --verbose
          coordinate file            : dft_tmp\113.xyz
          xtbhome directory          : C:\Users\nkapa\AppData\Roaming\SPB_Data
          path for xtb               : C:\Users\nkapa\Downloads\xtb-6.7.1pre-windows-x86_64\xtb-6.7.1\share\xtb
          xcontrol input file        : dft_tmp\113.xyz
          omp threads                :                     8


           -------------------------------------------------
          |                 G F N 2 - x T B                 |
           -------------------------------------------------

        Reference                      10.1021/acs.jctc.8b01176
      * Hamiltonian:
        H0-scaling (s, p, d)           1.850000    2.230000    2.230000
        zeta-weighting                 0.500000
      * Dispersion:
        s8                             2.700000
        a1                             0.520000
        a2                             5.000000
        s9                             5.000000
      * Repulsion:
        kExp                           1.500000    1.000000
        rExp                           1.000000
      * Coulomb:
        alpha                          2.000000
        third order                    shell-resolved
        anisotropic                    true
        a3                             3.000000
        a5                             4.000000
        cn-shift                       1.200000
        cn-exp                         4.000000
        max-rad                        5.000000


          ...................................................
          :                      SETUP                      :
          :.................................................:
          :  # basis functions                  34          :
          :  # atomic orbitals                  34          :
          :  # shells                           20          :
          :  # electrons                        36          :
          :  max. iterations                   250          :
          :  Hamiltonian                  GFN2-xTB          :
          :  restarted?                      false          :
          :  GBSA solvation                  false          :
          :  PC potential                    false          :
          :  electronic temp.          300.0000000     K    :
          :  accuracy                    1.0000000          :
          :  -> integral cutoff          0.2500000E+02      :
          :  -> integral neglect         0.1000000E-07      :
          :  -> SCF convergence          0.1000000E-05 Eh   :
          :  -> wf. convergence          0.1000000E-03 e    :
          :  Broyden damping             0.4000000          :
          :  net charge                          0          :
          :  unpaired electrons                  0          :
          ...................................................

 iter      E             dE          RMSdq      gap      omega  full diag
   1    -19.8372364 -0.198372E+02  0.444E+00    2.85       0.0  T
   2    -19.8616717 -0.244353E-01  0.278E+00    3.38       1.0  T
   3    -19.8610712  0.600460E-03  0.123E+00    3.27       1.0  T
   4    -19.8643243 -0.325304E-02  0.335E-01    3.13       1.0  T
   5    -19.8653865 -0.106226E-02  0.109E-01    3.16       1.0  T
   6    -19.8654387 -0.521473E-04  0.397E-02    3.16       1.0  T
   7    -19.8654451 -0.639957E-05  0.188E-02    3.15       1.5  T
   8    -19.8654456 -0.496952E-06  0.647E-03    3.16       4.3  T
   9    -19.8654459 -0.374364E-06  0.169E-03    3.16      16.4  T
  10    -19.8654459 -0.520733E-08  0.998E-04    3.16      27.8  T
  11    -19.8654459 -0.442965E-08  0.428E-04    3.16      64.9  T

   *** convergence criteria satisfied after 11 iterations ***

         #    Occupation            Energy/Eh            Energy/eV
      -------------------------------------------------------------
         1        2.0000           -0.6461029             -17.5814
       ...           ...                  ...                  ...
        12        2.0000           -0.4833374             -13.1523
        13        2.0000           -0.4566367             -12.4257
        14        2.0000           -0.4377647             -11.9122
        15        2.0000           -0.4362089             -11.8698
        16        2.0000           -0.4151867             -11.2978
        17        2.0000           -0.3669654              -9.9856
        18        2.0000           -0.3546369              -9.6502 (HOMO)
        19                         -0.2386299              -6.4935 (LUMO)
        20                         -0.2140529              -5.8247
        21                         -0.1024269              -2.7872
        22                         -0.0451919              -1.2297
        23                          0.0993648               2.7039
       ...                                ...                  ...
        34                          0.5951134              16.1939
      -------------------------------------------------------------
                  HL-Gap            0.1160070 Eh            3.1567 eV
             Fermi-level           -0.2966334 Eh           -8.0718 eV

 SCC (total)                   0 d,  0 h,  0 min,  0.009 sec
 SCC setup                      ...        0 min,  0.000 sec (  0.000%)
 Dispersion                     ...        0 min,  0.000 sec (  0.000%)
 classical contributions        ...        0 min,  0.001 sec ( 11.110%)
 integral evaluation            ...        0 min,  0.000 sec (  0.000%)
 iterations                     ...        0 min,  0.007 sec ( 77.777%)
 molecular gradient             ...        0 min,  0.001 sec ( 11.113%)
 printout                       ...        0 min,  0.000 sec (  0.000%)

         :::::::::::::::::::::::::::::::::::::::::::::::::::::
         ::                     SUMMARY                     ::
         :::::::::::::::::::::::::::::::::::::::::::::::::::::
         :: total energy             -19.581266461211 Eh    ::
         :: gradient norm              0.076000126522 Eh/a0 ::
         :: HOMO-LUMO gap              3.156710806051 eV    ::
         ::.................................................::
         :: HOMO orbital eigv.        -9.650162245488 eV    ::
         :: LUMO orbital eigv.        -6.493451439437 eV    ::
         ::.................................................::
         :: SCC energy               -19.865437122836 Eh    ::
         :: -> isotropic ES            0.018389014598 Eh    ::
         :: -> anisotropic ES          0.005412740613 Eh    ::
         :: -> anisotropic XC          0.017829144591 Eh    ::
         :: -> dispersion             -0.009054467549 Eh    ::
         :: repulsion energy           0.284170661625 Eh    ::
         :: add. restraining           0.000000000000 Eh    ::
         :: total charge               0.000000000000 e     ::
         ::.................................................::
         :: atomisation energy         4.044619714889 Eh    ::
         :::::::::::::::::::::::::::::::::::::::::::::::::::::

           -------------------------------------------------
          |                Property Printout                |
           -------------------------------------------------

    * Orbital Energies and Occupations

         #    Occupation            Energy/Eh            Energy/eV
      -------------------------------------------------------------
         1        2.0000           -0.6461029             -17.5814
       ...           ...                  ...                  ...
         6        2.0000           -0.5687128             -15.4755
         7        2.0000           -0.5341691             -14.5355
         8        2.0000           -0.5280277             -14.3684
         9        2.0000           -0.5051360             -13.7455
        10        2.0000           -0.4946410             -13.4599
        11        2.0000           -0.4890661             -13.3082
        12        2.0000           -0.4833374             -13.1523
        13        2.0000           -0.4566367             -12.4257
        14        2.0000           -0.4377647             -11.9122
        15        2.0000           -0.4362089             -11.8698
        16        2.0000           -0.4151867             -11.2978
        17        2.0000           -0.3669654              -9.9856
        18        2.0000           -0.3546369              -9.6502 (HOMO)
        19                         -0.2386299              -6.4935 (LUMO)
        20                         -0.2140529              -5.8247
        21                         -0.1024269              -2.7872
        22                         -0.0451919              -1.2297
        23                          0.0993648               2.7039
        24                          0.1236935               3.3659
        25                          0.1466483               3.9905
        26                          0.1629425               4.4339
        27                          0.1755747               4.7776
        28                          0.1978386               5.3835
        29                          0.2948457               8.0232
       ...                                ...                  ...
        34                          0.5951134              16.1939
      -------------------------------------------------------------
                  HL-Gap            0.1160070 Eh            3.1567 eV
             Fermi-level           -0.2966334 Eh           -8.0718 eV

     #   Z          covCN         q      C6AA      α(0)
     1   6 C        2.914    -0.016    28.410     8.740
     2   6 C        2.906    -0.053    29.328     8.880
     3   6 C        2.852     0.055    26.769     8.480
     4   7 N        1.836    -0.263    27.679     7.796
     5   6 C        2.834     0.157    24.588     8.126
     6   6 C        2.909    -0.063    29.567     8.916
     7   7 N        2.628    -0.267    26.927     7.707
     8   1 H        0.925     0.031     2.576     2.510
     9   1 H        0.925     0.025     2.655     2.548
    10   1 H        0.925     0.039     2.464     2.455
    11   1 H        0.925     0.025     2.663     2.552
    12   1 H        0.858     0.160     1.333     1.809
    13   1 H        0.858     0.171     1.270     1.765

 Mol. C6AA /au·bohr⁶  :       2064.658370
 Mol. C8AA /au·bohr⁸  :      48715.343906
 Mol. α(0) /au        :         72.283749


Wiberg/Mayer (AO) data.
largest (>0.10) Wiberg bond orders for each atom

 ---------------------------------------------------------------------------
     #   Z sym  total        # sym  WBO       # sym  WBO       # sym  WBO
 ---------------------------------------------------------------------------
     1   6 C    3.991 --     6 C    1.474     2 C    1.412     8 H    0.971
     2   6 C    3.991 --     3 C    1.443     1 C    1.412     9 H    0.971
     3   6 C    3.980 --     2 C    1.443     4 N    1.423    10 H    0.966
                             6 C    0.115
     4   7 N    3.037 --     3 C    1.423     5 C    1.352
     5   6 C    3.966 --     4 N    1.352     6 C    1.329     7 N    1.167
     6   6 C    3.989 --     1 C    1.474     5 C    1.329    11 H    0.969
                             3 C    0.115
     7   7 N    3.284 --     5 C    1.167    12 H    0.957    13 H    0.954
     8   1 H    0.999 --     1 C    0.971
     9   1 H    0.999 --     2 C    0.971
    10   1 H    0.998 --     3 C    0.966
    11   1 H    0.999 --     6 C    0.969
    12   1 H    0.974 --     7 N    0.957
    13   1 H    0.970 --     7 N    0.954
 ---------------------------------------------------------------------------

Topologies differ in total number of bonds
Writing topology from bond orders to xtbtopo.mol

molecular dipole:
                 x           y           z       tot (Debye)
 q only:        0.526       0.031       0.320
   full:        0.435       0.134       0.653       2.022
molecular quadrupole (traceless):
                xx          xy          yy          xz          yz          zz
 q only:        5.480      -0.729      -3.310       0.953       0.255      -2.170
  q+dip:        8.596      -1.106      -6.661       2.300       1.190      -1.935
   full:        7.544      -0.728      -4.488       2.241       0.187      -3.057


           -------------------------------------------------
          | TOTAL ENERGY              -19.581266461211 Eh   |
          | GRADIENT NORM               0.076000126522 Eh/α |
          | HOMO-LUMO GAP               3.156710806051 eV   |
           -------------------------------------------------
########################################################################
[WARNING] Runtime exception occurred
-2- restart_readRestart: Dimension missmatch in restart file.
-1- restart_readRestart: Number of electron missmatch in restart file.
########################################################################

------------------------------------------------------------------------
 unit  open   action     filename
  129 false : read       dft_tmp\113.xyz
  129 false : read       dft_tmp\113.xyz
  129 false : read       dft_tmp\113.xyz
  129 false : read       C:\Users\nkapa\Downloads\xtb-6.7.1pre-windows-x86_64\xtb-6.7.1\share\xtb\param_gfn2-xtb.txt
  129 false : read       xtbrestart
  129 false : replaced   charges
  129 false : replaced   wbo
  129 false : replaced   xtbtopo.mol
  129 false : replaced   xtbrestart

------------------------------------------------------------------------
 * finished run on 2025/06/23 at 11:31:43.306     
------------------------------------------------------------------------
 total:
 * wall-time:     0 d,  0 h,  0 min,  0.041 sec
 *  cpu-time:     0 d,  0 h,  0 min,  0.266 sec
 * ratio c/w:     6.479 speedup
 SCF:
 * wall-time:     0 d,  0 h,  0 min,  0.010 sec
 *  cpu-time:     0 d,  0 h,  0 min,  0.000 sec
 * ratio c/w:     0.000 speedup

normal termination of xtb
