      -----------------------------------------------------------      
     |                   =====================                   |     
     |                           x T B                           |     
     |                   =====================                   |     
     |                         S. Grimme                         |     
     |          Mulliken Center for Theoretical Chemistry        |     
     |                    University of Bonn                     |     
      -----------------------------------------------------------      

   * xtb version 6.7.1pre (5071a88) compiled by 'Marcel@Raven' on 2024-07-23

   xtb is free software: you can redistribute it and/or modify it under
   the terms of the GNU Lesser General Public License as published by
   the Free Software Foundation, either version 3 of the License, or
   (at your option) any later version.
   
   xtb is distributed in the hope that it will be useful,
   but WITHOUT ANY WARRANTY; without even the implied warranty of
   MERCHANTABILITY or FITNESS FOR A PARTICULAR PURPOSE.  See the
   GNU Lesser General Public License for more details.
   
   Cite this work as:
   * C. Bannwarth, E. Caldeweyher, S. Ehlert, A. Hansen, P. Pracht,
     J. Seibert, S. Spicher, S. Grimme, WIREs Comput. Mol. Sci., 2020, 11,
     e01493. DOI: 10.1002/wcms.1493
   
   for GFN2-xTB:
   * C. Bannwarth, S. Ehlert and S. Grimme., J. Chem. Theory Comput., 2019,
     15, 1652-1671. DOI: 10.1021/acs.jctc.8b01176
   for GFN1-xTB:
   * S. Grimme, C. Bannwarth, P. Shushkov, J. Chem. Theory Comput., 2017,
     13, 1989-2009. DOI: 10.1021/acs.jctc.7b00118
   for GFN0-xTB:
   * P. Pracht, E. Caldeweyher, S. Ehlert, S. Grimme, ChemRxiv, 2019, preprint.
     DOI: 10.26434/chemrxiv.8326202.v1
   for GFN-FF:
   * S. Spicher and S. Grimme, Angew. Chem. Int. Ed., 2020, 59, 15665-15673.
     DOI: 10.1002/anie.202004239
   
   for ALPB and GBSA implicit solvation:
   * S. Ehlert, M. Stahn, S. Spicher, S. Grimme, J. Chem. Theory Comput.,
     2021, 17, 4250-4261. DOI: 10.1021/acs.jctc.1c00471
   
   for ddCOSMO and CPCM-X implicit solvation:
   * M. Stahn, S. Ehlert, S. Grimme, J. Phys. Chem. A,
     2023, XX, XXXX-XXXX. DOI: 10.1021/acs.jpca.3c04382
   
   for DFT-D4:
   * E. Caldeweyher, C. Bannwarth and S. Grimme, J. Chem. Phys., 2017,
     147, 034112. DOI: 10.1063/1.4993215
   * E. Caldeweyher, S. Ehlert, A. Hansen, H. Neugebauer, S. Spicher,
     C. Bannwarth and S. Grimme, J. Chem. Phys., 2019, 150, 154122.
     DOI: 10.1063/1.5090222
   * E. Caldeweyher, J.-M. Mewes, S. Ehlert and S. Grimme, Phys. Chem. Chem. Phys.
     2020, 22, 8499-8512. DOI: 10.1039/D0CP00502A
   
   for sTDA-xTB:
   * S. Grimme and C. Bannwarth, J. Chem. Phys., 2016, 145, 054103.
     DOI: 10.1063/1.4959605
   
   in the mass-spec context:
   * V. Asgeirsson, C. Bauer and S. Grimme, Chem. Sci., 2017, 8, 4879.
     DOI: 10.1039/c7sc00601b
   * J. Koopman and S. Grimme, ACS Omega 2019, 4, 12, 15120-15133.
     DOI: 10.1021/acsomega.9b02011
   
   for metadynamics refer to:
   * S. Grimme, J. Chem. Theory Comput., 2019, 155, 2847-2862
     DOI: 10.1021/acs.jctc.9b00143
   
   for SPH calculations refer to:
   * S. Spicher and S. Grimme, J. Chem. Theory Comput., 2021, 17, 1701-1714
     DOI: 10.1021/acs.jctc.0c01306
   
   for ONIOM refer to:
   * C. Plett, A. Katbashev, S. Ehlert, S. Grimme, M. Bursch,
     Phys. Chem. Chem. Phys., 2023, 25, 17860-17868. DOI: 10.1039/D3CP02178E
   
   for DIPRO refer to:
   * J. Kohn, N. Gildemeister, S. Grimme, D. Fazzi, A. Hansen,
     J. Chem. Phys., 2023, just accepted.
   
   for PTB refer to:
   * S. Grimme, M. Mueller, A. Hansen, J. Chem. Phys., 2023, 158, 124111.
     DOI: 10.1063/5.0137838
   
   with help from (in alphabetical order)
   P. Atkinson, C. Bannwarth, F. Bohle, G. Brandenburg, E. Caldeweyher
   M. Checinski, S. Dohm, S. Ehlert, S. Ehrlich, I. Gerasimov, C. Hölzer
   A. Katbashev, J. Kohn, J. Koopman, C. Lavigne, S. Lehtola, F. März, M. Müller,
   F. Musil, H. Neugebauer, J. Pisarek, C. Plett, P. Pracht, F. Pultar,
   J. Seibert, P. Shushkov, S. Spicher, M. Stahn, M. Steiner, T. Strunk,
   J. Stückrath, T. Rose, and J. Unsleber
   
 * started run on 2025/06/23 at 11:31:43.865     
$$$$$$$$$$$$$$$$$$$$$$$$$$$$$$$$$$$$$$$$$$$$$$$$$$$$$$$$$$$$$$$$$$$$$$$$
 CONSTRAINTS & SCANS: DEBUG SECTION
$$$$$$$$$$$$$$$$$$$$$$$$$$$$$$$$$$$$$$$$$$$$$$$$$$$$$$$$$$$$$$$$$$$$$$$$
   ID    Z sym.   atoms
    1    6 C      1, 2
    2    8 O      3, 4
    3    7 N      5
    4    1 H      6-10
$$$$$$$$$$$$$$$$$$$$$$$$$$$$$$$$$$$$$$$$$$$$$$$$$$$$$$$$$$$$$$$$$$$$$$$$

           -------------------------------------------------
          |                Calculation Setup                |
           -------------------------------------------------

          program call               : C:\Users\nkapa\Downloads\xtb-6.7.1pre-windows-x86_64\xtb-6.7.1\bin\xtb.EXE dft_tmp\119.xyz --gfn2 --parallel 8 --verbose
          coordinate file            : dft_tmp\119.xyz
          xtbhome directory          : C:\Users\nkapa\AppData\Roaming\SPB_Data
          path for xtb               : C:\Users\nkapa\Downloads\xtb-6.7.1pre-windows-x86_64\xtb-6.7.1\share\xtb
          xcontrol input file        : dft_tmp\119.xyz
          omp threads                :                     8


           -------------------------------------------------
          |                 G F N 2 - x T B                 |
           -------------------------------------------------

        Reference                      10.1021/acs.jctc.8b01176
      * Hamiltonian:
        H0-scaling (s, p, d)           1.850000    2.230000    2.230000
        zeta-weighting                 0.500000
      * Dispersion:
        s8                             2.700000
        a1                             0.520000
        a2                             5.000000
        s9                             5.000000
      * Repulsion:
        kExp                           1.500000    1.000000
        rExp                           1.000000
      * Coulomb:
        alpha                          2.000000
        third order                    shell-resolved
        anisotropic                    true
        a3                             3.000000
        a5                             4.000000
        cn-shift                       1.200000
        cn-exp                         4.000000
        max-rad                        5.000000


          ...................................................
          :                      SETUP                      :
          :.................................................:
          :  # basis functions                  25          :
          :  # atomic orbitals                  25          :
          :  # shells                           15          :
          :  # electrons                        30          :
          :  max. iterations                   250          :
          :  Hamiltonian                  GFN2-xTB          :
          :  restarted?                      false          :
          :  GBSA solvation                  false          :
          :  PC potential                    false          :
          :  electronic temp.          300.0000000     K    :
          :  accuracy                    1.0000000          :
          :  -> integral cutoff          0.2500000E+02      :
          :  -> integral neglect         0.1000000E-07      :
          :  -> SCF convergence          0.1000000E-05 Eh   :
          :  -> wf. convergence          0.1000000E-03 e    :
          :  Broyden damping             0.4000000          :
          :  net charge                          0          :
          :  unpaired electrons                  0          :
          ...................................................

 iter      E             dE          RMSdq      gap      omega  full diag
   1    -17.9375645 -0.179376E+02  0.479E+00    3.58       0.0  T
   2    -17.9775831 -0.400186E-01  0.237E+00    3.39       1.0  T
   3    -17.9807739 -0.319080E-02  0.150E+00    3.71       1.0  T
   4    -17.9848826 -0.410868E-02  0.247E-01    3.38       1.0  T
   5    -17.9851766 -0.294058E-03  0.855E-02    3.39       1.0  T
   6    -17.9851829 -0.630980E-05  0.331E-02    3.38       1.0  T
   7    -17.9851840 -0.107606E-05  0.916E-03    3.38       3.5  T
   8    -17.9851841 -0.457779E-07  0.348E-03    3.39       9.1  T
   9    -17.9851841 -0.286251E-07  0.100E-03    3.39      31.6  T
  10    -17.9851841 -0.139983E-08  0.488E-04    3.39      64.7  T
  11    -17.9851841 -0.159351E-08  0.124E-04    3.39     254.9  T

   *** convergence criteria satisfied after 11 iterations ***

         #    Occupation            Energy/Eh            Energy/eV
      -------------------------------------------------------------
         1        2.0000           -0.7384721             -20.0948
       ...           ...                  ...                  ...
         9        2.0000           -0.5416568             -14.7392
        10        2.0000           -0.5118867             -13.9291
        11        2.0000           -0.5046286             -13.7316
        12        2.0000           -0.4751855             -12.9305
        13        2.0000           -0.4666674             -12.6987
        14        2.0000           -0.4388825             -11.9426
        15        2.0000           -0.3919835             -10.6664 (HOMO)
        16                         -0.2675836              -7.2813 (LUMO)
        17                         -0.0457519              -1.2450
        18                          0.0196311               0.5342
        19                          0.0962216               2.6183
        20                          0.1058785               2.8811
       ...                                ...                  ...
        25                          0.4538022              12.3486
      -------------------------------------------------------------
                  HL-Gap            0.1243999 Eh            3.3851 eV
             Fermi-level           -0.3297835 Eh           -8.9739 eV

 SCC (total)                   0 d,  0 h,  0 min,  0.008 sec
 SCC setup                      ...        0 min,  0.000 sec (  0.000%)
 Dispersion                     ...        0 min,  0.001 sec ( 12.502%)
 classical contributions        ...        0 min,  0.000 sec (  0.000%)
 integral evaluation            ...        0 min,  0.000 sec (  0.000%)
 iterations                     ...        0 min,  0.005 sec ( 62.497%)
 molecular gradient             ...        0 min,  0.001 sec ( 12.502%)
 printout                       ...        0 min,  0.001 sec ( 12.499%)

         :::::::::::::::::::::::::::::::::::::::::::::::::::::
         ::                     SUMMARY                     ::
         :::::::::::::::::::::::::::::::::::::::::::::::::::::
         :: total energy             -17.858845614161 Eh    ::
         :: gradient norm              0.130303309243 Eh/a0 ::
         :: HOMO-LUMO gap              3.385094774386 eV    ::
         ::.................................................::
         :: HOMO orbital eigv.       -10.666414398165 eV    ::
         :: LUMO orbital eigv.        -7.281319623779 eV    ::
         ::.................................................::
         :: SCC energy               -17.985181171947 Eh    ::
         :: -> isotropic ES            0.059149535370 Eh    ::
         :: -> anisotropic ES          0.001946431769 Eh    ::
         :: -> anisotropic XC          0.005743327417 Eh    ::
         :: -> dispersion             -0.004397575287 Eh    ::
         :: repulsion energy           0.126335557786 Eh    ::
         :: add. restraining           0.000000000000 Eh    ::
         :: total charge              -0.000000000000 e     ::
         ::.................................................::
         :: atomisation energy         2.583410838010 Eh    ::
         :::::::::::::::::::::::::::::::::::::::::::::::::::::

           -------------------------------------------------
          |                Property Printout                |
           -------------------------------------------------

    * Orbital Energies and Occupations

         #    Occupation            Energy/Eh            Energy/eV
      -------------------------------------------------------------
         1        2.0000           -0.7384721             -20.0948
       ...           ...                  ...                  ...
         3        2.0000           -0.6717893             -18.2803
         4        2.0000           -0.6431026             -17.4997
         5        2.0000           -0.6058632             -16.4864
         6        2.0000           -0.5810266             -15.8105
         7        2.0000           -0.5724933             -15.5783
         8        2.0000           -0.5623501             -15.3023
         9        2.0000           -0.5416568             -14.7392
        10        2.0000           -0.5118867             -13.9291
        11        2.0000           -0.5046286             -13.7316
        12        2.0000           -0.4751855             -12.9305
        13        2.0000           -0.4666674             -12.6987
        14        2.0000           -0.4388825             -11.9426
        15        2.0000           -0.3919835             -10.6664 (HOMO)
        16                         -0.2675836              -7.2813 (LUMO)
        17                         -0.0457519              -1.2450
        18                          0.0196311               0.5342
        19                          0.0962216               2.6183
        20                          0.1058785               2.8811
        21                          0.1359312               3.6989
        22                          0.1422475               3.8708
        23                          0.1788103               4.8657
        24                          0.2396509               6.5212
        25                          0.4538022              12.3486
      -------------------------------------------------------------
                  HL-Gap            0.1243999 Eh            3.3851 eV
             Fermi-level           -0.3297835 Eh           -8.9739 eV

     #   Z          covCN         q      C6AA      α(0)
     1   6 C        3.727    -0.004    20.754     6.504
     2   6 C        2.687     0.336    21.297     7.552
     3   8 O        0.856    -0.417    22.021     6.292
     4   8 O        1.647    -0.383    20.529     6.116
     5   7 N        2.625    -0.308    27.936     7.850
     6   1 H        0.921     0.080     1.978     2.200
     7   1 H        0.921     0.067     2.114     2.274
     8   1 H        0.796     0.327     0.645     1.263
     9   1 H        0.857     0.149     1.411     1.861
    10   1 H        0.857     0.153     1.381     1.841

 Mol. C6AA /au·bohr⁶  :        877.272202
 Mol. C8AA /au·bohr⁸  :      18538.419273
 Mol. α(0) /au        :         43.752844


Wiberg/Mayer (AO) data.
largest (>0.10) Wiberg bond orders for each atom

 ---------------------------------------------------------------------------
     #   Z sym  total        # sym  WBO       # sym  WBO       # sym  WBO
 ---------------------------------------------------------------------------
     1   6 C    3.982 --     5 N    1.013     2 C    0.981     7 H    0.964
                             6 H    0.961
     2   6 C    3.907 --     3 O    1.749     4 O    1.118     1 C    0.981
     3   8 O    2.012 --     2 C    1.749     4 O    0.172
     4   8 O    2.187 --     2 C    1.118     8 H    0.865     3 O    0.172
     5   7 N    3.042 --     1 C    1.013     9 H    0.964    10 H    0.963
     6   1 H    0.994 --     1 C    0.961
     7   1 H    0.995 --     1 C    0.964
     8   1 H    0.893 --     4 O    0.865
     9   1 H    0.978 --     5 N    0.964
    10   1 H    0.977 --     5 N    0.963
 ---------------------------------------------------------------------------

Topologies differ in total number of bonds
Writing topology from bond orders to xtbtopo.mol

molecular dipole:
                 x           y           z       tot (Debye)
 q only:       -0.045       0.444      -0.611
   full:        0.426       0.573      -0.497       2.211
molecular quadrupole (traceless):
                xx          xy          yy          xz          yz          zz
 q only:        3.546       2.652       0.023      -2.500       3.093      -3.570
  q+dip:        2.964       3.964       0.656      -3.010       4.015      -3.620
   full:        2.570       3.437       1.258      -3.276       4.482      -3.828


           -------------------------------------------------
          | TOTAL ENERGY              -17.858845614161 Eh   |
          | GRADIENT NORM               0.130303309243 Eh/α |
          | HOMO-LUMO GAP               3.385094774386 eV   |
           -------------------------------------------------
########################################################################
[WARNING] Runtime exception occurred
-2- restart_readRestart: Dimension missmatch in restart file.
-1- restart_readRestart: Number of electron missmatch in restart file.
########################################################################

------------------------------------------------------------------------
 unit  open   action     filename
  129 false : read       dft_tmp\119.xyz
  129 false : read       dft_tmp\119.xyz
  129 false : read       dft_tmp\119.xyz
  129 false : read       C:\Users\nkapa\Downloads\xtb-6.7.1pre-windows-x86_64\xtb-6.7.1\share\xtb\param_gfn2-xtb.txt
  129 false : read       xtbrestart
  129 false : replaced   charges
  129 false : replaced   wbo
  129 false : replaced   xtbtopo.mol
  129 false : replaced   xtbrestart

------------------------------------------------------------------------
 * finished run on 2025/06/23 at 11:31:43.912     
------------------------------------------------------------------------
 total:
 * wall-time:     0 d,  0 h,  0 min,  0.045 sec
 *  cpu-time:     0 d,  0 h,  0 min,  0.250 sec
 * ratio c/w:     5.556 speedup
 SCF:
 * wall-time:     0 d,  0 h,  0 min,  0.008 sec
 *  cpu-time:     0 d,  0 h,  0 min,  0.000 sec
 * ratio c/w:     0.000 speedup

normal termination of xtb
