68

N -8.308067 2.284572 1.454668
C -7.605659 1.273300 0.710070
C -6.764715 1.669378 -0.345680
N -6.664799 3.061902 -0.697953
N -5.580745 3.689220 -0.962238
C -4.252994 3.162331 -0.807921
C -3.310259 3.379337 -1.817489
C -2.018305 2.858313 -1.701751
C -1.643268 2.127288 -0.559698
C -0.281657 1.545635 -0.448258
C 0.844392 2.269973 -0.878898
C 2.124276 1.715755 -0.783003
C 2.299448 0.425262 -0.254274
N 3.595087 -0.175816 -0.149454
N 4.649461 0.411154 -0.551967
C 5.958284 -0.174042 -0.460611
C 7.044032 0.700379 -0.446724
C 8.354697 0.242917 -0.279021
S 9.663985 1.441107 -0.258628
O 10.349898 1.415836 1.078343
O 9.121303 2.822909 -0.496905
O 10.769837 1.087492 -1.473182
C 8.593722 -1.145828 -0.133917
C 9.898926 -1.655239 0.047937
C 10.123047 -3.026821 0.151676
C 9.059101 -3.917604 0.069251
C 7.759613 -3.444047 -0.103048
C 7.498567 -2.057747 -0.187224
C 6.177010 -1.568493 -0.355122
N 5.073335 -2.479629 -0.464949
C 1.181942 -0.296522 0.177467
C -0.098159 0.256009 0.082435
C -2.581404 1.952090 0.473436
C -3.870913 2.476727 0.356084
C -6.057976 0.709028 -1.076803
C -6.092574 -0.642366 -0.727860
S -5.075298 -1.763318 -1.652090
O -4.118491 -2.458624 -0.725196
O -5.939745 -2.777622 -2.346121
O -4.183969 -0.934341 -2.811315
C -6.926746 -1.065541 0.336766
C -7.018560 -2.426558 0.704136
C -7.873669 -2.835234 1.725326
C -8.661298 -1.904388 2.391880
C -8.587899 -0.553441 2.056406
C -7.708482 -0.103753 1.045332
H -8.429970 3.248550 1.072729
H -8.598474 2.146652 2.445829
H -3.587689 3.927009 -2.709302
H -1.321504 3.004953 -2.517468
H 0.736841 3.271376 -1.276379
H 2.973860 2.295917 -1.119947
H 6.850177 1.761371 -0.541021
H 10.761156 -1.008334 0.109363
H 11.129574 -3.401345 0.287550
H 9.241851 -4.982601 0.136008
H 6.972525 -4.179712 -0.179049
H 4.988658 -3.310516 0.160777
H 4.321597 -2.325078 -1.172655
H 1.303457 -1.293402 0.583035
H -0.946626 -0.333826 0.406092
H -2.313226 1.422556 1.378952
H -4.570818 2.347376 1.171597
H -5.461098 1.028633 -1.919935
H -6.444001 -3.193018 0.206285
H -7.935951 -3.882789 1.991465
H -9.338670 -2.231774 3.170360
H -9.245979 0.117062 2.586697
