      -----------------------------------------------------------      
     |                   =====================                   |     
     |                           x T B                           |     
     |                   =====================                   |     
     |                         S. Grimme                         |     
     |          Mulliken Center for Theoretical Chemistry        |     
     |                    University of Bonn                     |     
      -----------------------------------------------------------      

   * xtb version 6.7.1pre (5071a88) compiled by 'Marcel@Raven' on 2024-07-23

   xtb is free software: you can redistribute it and/or modify it under
   the terms of the GNU Lesser General Public License as published by
   the Free Software Foundation, either version 3 of the License, or
   (at your option) any later version.
   
   xtb is distributed in the hope that it will be useful,
   but WITHOUT ANY WARRANTY; without even the implied warranty of
   MERCHANTABILITY or FITNESS FOR A PARTICULAR PURPOSE.  See the
   GNU Lesser General Public License for more details.
   
   Cite this work as:
   * C. Bannwarth, E. Caldeweyher, S. Ehlert, A. Hansen, P. Pracht,
     J. Seibert, S. Spicher, S. Grimme, WIREs Comput. Mol. Sci., 2020, 11,
     e01493. DOI: 10.1002/wcms.1493
   
   for GFN2-xTB:
   * C. Bannwarth, S. Ehlert and S. Grimme., J. Chem. Theory Comput., 2019,
     15, 1652-1671. DOI: 10.1021/acs.jctc.8b01176
   for GFN1-xTB:
   * S. Grimme, C. Bannwarth, P. Shushkov, J. Chem. Theory Comput., 2017,
     13, 1989-2009. DOI: 10.1021/acs.jctc.7b00118
   for GFN0-xTB:
   * P. Pracht, E. Caldeweyher, S. Ehlert, S. Grimme, ChemRxiv, 2019, preprint.
     DOI: 10.26434/chemrxiv.8326202.v1
   for GFN-FF:
   * S. Spicher and S. Grimme, Angew. Chem. Int. Ed., 2020, 59, 15665-15673.
     DOI: 10.1002/anie.202004239
   
   for ALPB and GBSA implicit solvation:
   * S. Ehlert, M. Stahn, S. Spicher, S. Grimme, J. Chem. Theory Comput.,
     2021, 17, 4250-4261. DOI: 10.1021/acs.jctc.1c00471
   
   for ddCOSMO and CPCM-X implicit solvation:
   * M. Stahn, S. Ehlert, S. Grimme, J. Phys. Chem. A,
     2023, XX, XXXX-XXXX. DOI: 10.1021/acs.jpca.3c04382
   
   for DFT-D4:
   * E. Caldeweyher, C. Bannwarth and S. Grimme, J. Chem. Phys., 2017,
     147, 034112. DOI: 10.1063/1.4993215
   * E. Caldeweyher, S. Ehlert, A. Hansen, H. Neugebauer, S. Spicher,
     C. Bannwarth and S. Grimme, J. Chem. Phys., 2019, 150, 154122.
     DOI: 10.1063/1.5090222
   * E. Caldeweyher, J.-M. Mewes, S. Ehlert and S. Grimme, Phys. Chem. Chem. Phys.
     2020, 22, 8499-8512. DOI: 10.1039/D0CP00502A
   
   for sTDA-xTB:
   * S. Grimme and C. Bannwarth, J. Chem. Phys., 2016, 145, 054103.
     DOI: 10.1063/1.4959605
   
   in the mass-spec context:
   * V. Asgeirsson, C. Bauer and S. Grimme, Chem. Sci., 2017, 8, 4879.
     DOI: 10.1039/c7sc00601b
   * J. Koopman and S. Grimme, ACS Omega 2019, 4, 12, 15120-15133.
     DOI: 10.1021/acsomega.9b02011
   
   for metadynamics refer to:
   * S. Grimme, J. Chem. Theory Comput., 2019, 155, 2847-2862
     DOI: 10.1021/acs.jctc.9b00143
   
   for SPH calculations refer to:
   * S. Spicher and S. Grimme, J. Chem. Theory Comput., 2021, 17, 1701-1714
     DOI: 10.1021/acs.jctc.0c01306
   
   for ONIOM refer to:
   * C. Plett, A. Katbashev, S. Ehlert, S. Grimme, M. Bursch,
     Phys. Chem. Chem. Phys., 2023, 25, 17860-17868. DOI: 10.1039/D3CP02178E
   
   for DIPRO refer to:
   * J. Kohn, N. Gildemeister, S. Grimme, D. Fazzi, A. Hansen,
     J. Chem. Phys., 2023, just accepted.
   
   for PTB refer to:
   * S. Grimme, M. Mueller, A. Hansen, J. Chem. Phys., 2023, 158, 124111.
     DOI: 10.1063/5.0137838
   
   with help from (in alphabetical order)
   P. Atkinson, C. Bannwarth, F. Bohle, G. Brandenburg, E. Caldeweyher
   M. Checinski, S. Dohm, S. Ehlert, S. Ehrlich, I. Gerasimov, C. Hölzer
   A. Katbashev, J. Kohn, J. Koopman, C. Lavigne, S. Lehtola, F. März, M. Müller,
   F. Musil, H. Neugebauer, J. Pisarek, C. Plett, P. Pracht, F. Pultar,
   J. Seibert, P. Shushkov, S. Spicher, M. Stahn, M. Steiner, T. Strunk,
   J. Stückrath, T. Rose, and J. Unsleber
   
 * started run on 2025/06/23 at 11:31:44.771     
$$$$$$$$$$$$$$$$$$$$$$$$$$$$$$$$$$$$$$$$$$$$$$$$$$$$$$$$$$$$$$$$$$$$$$$$
 CONSTRAINTS & SCANS: DEBUG SECTION
$$$$$$$$$$$$$$$$$$$$$$$$$$$$$$$$$$$$$$$$$$$$$$$$$$$$$$$$$$$$$$$$$$$$$$$$
   ID    Z sym.   atoms
    1    7 N      1, 4, 5, 14, 15, 30
    2    6 C      2, 3, 6-13, 16-18, 23-29, 31-36, 41-46
    3   16 S      19, 37
    4    8 O      20-22, 38-40
    5    1 H      47-68
$$$$$$$$$$$$$$$$$$$$$$$$$$$$$$$$$$$$$$$$$$$$$$$$$$$$$$$$$$$$$$$$$$$$$$$$

           -------------------------------------------------
          |                Calculation Setup                |
           -------------------------------------------------

          program call               : C:\Users\nkapa\Downloads\xtb-6.7.1pre-windows-x86_64\xtb-6.7.1\bin\xtb.EXE dft_tmp\120.xyz --gfn2 --parallel 8 --verbose --chrg -2
          coordinate file            : dft_tmp\120.xyz
          xtbhome directory          : C:\Users\nkapa\AppData\Roaming\SPB_Data
          path for xtb               : C:\Users\nkapa\Downloads\xtb-6.7.1pre-windows-x86_64\xtb-6.7.1\share\xtb
          xcontrol input file        : dft_tmp\120.xyz
          omp threads                :                     8


           -------------------------------------------------
          |                 G F N 2 - x T B                 |
           -------------------------------------------------

        Reference                      10.1021/acs.jctc.8b01176
      * Hamiltonian:
        H0-scaling (s, p, d)           1.850000    2.230000    2.230000
        zeta-weighting                 0.500000
      * Dispersion:
        s8                             2.700000
        a1                             0.520000
        a2                             5.000000
        s9                             5.000000
      * Repulsion:
        kExp                           1.500000    1.000000
        rExp                           1.000000
      * Coulomb:
        alpha                          2.000000
        third order                    shell-resolved
        anisotropic                    true
        a3                             3.000000
        a5                             4.000000
        cn-shift                       1.200000
        cn-exp                         4.000000
        max-rad                        5.000000


          ...................................................
          :                      SETUP                      :
          :.................................................:
          :  # basis functions                 218          :
          :  # atomic orbitals                 216          :
          :  # shells                          116          :
          :  # electrons                       230          :
          :  max. iterations                   250          :
          :  Hamiltonian                  GFN2-xTB          :
          :  restarted?                      false          :
          :  GBSA solvation                  false          :
          :  PC potential                    false          :
          :  electronic temp.          300.0000000     K    :
          :  accuracy                    1.0000000          :
          :  -> integral cutoff          0.2500000E+02      :
          :  -> integral neglect         0.1000000E-07      :
          :  -> SCF convergence          0.1000000E-05 Eh   :
          :  -> wf. convergence          0.1000000E-03 e    :
          :  Broyden damping             0.4000000          :
          :  net charge                         -2          :
          :  unpaired electrons                  0          :
          ...................................................

 iter      E             dE          RMSdq      gap      omega  full diag
   1   -129.8256376 -0.129826E+03  0.564E+00    0.82       0.0  T
   2   -130.0229772 -0.197340E+00  0.333E+00    0.56       1.0  T
   3   -128.0192015  0.200378E+01  0.361E+00    0.04       1.0  T
   4   -129.0861973 -0.106700E+01  0.276E+00    0.11       1.0  T
   5   -128.9381226  0.148075E+00  0.274E+00    0.29       1.0  T
   6   -128.6515623  0.286560E+00  0.278E+00    0.89       1.0  T
   7   -130.0142942 -0.136273E+01  0.103E+00    0.74       1.0  T
   8   -130.0356319 -0.213377E-01  0.648E-01    0.56       1.0  T
   9   -130.0396377 -0.400577E-02  0.555E-01    0.54       1.0  T
  10   -130.0443224 -0.468472E-02  0.433E-01    0.37       1.0  T
  11   -129.2502738  0.794049E+00  0.241E+00    0.10       1.0  T
  12   -129.9922841 -0.742010E+00  0.667E-01    0.06       1.0  T
  13   -129.5156964  0.476588E+00  0.200E+00    0.05       1.0  T
  14   -129.6247814 -0.109085E+00  0.178E+00    0.03       1.0  T
  15   -129.8404403 -0.215659E+00  0.124E+00    0.01       1.0  T
  16   -129.9463880 -0.105948E+00  0.885E-01    0.03       1.0  T
  17   -130.0521409 -0.105753E+00  0.184E-01    0.13       1.0  T
  18   -130.0548943 -0.275336E-02  0.130E-01    0.16       1.0  T
  19   -130.0443411  0.105532E-01  0.311E-01    0.09       1.0  T
  20   -130.0571105 -0.127694E-01  0.624E-02    0.15       1.0  T
  21   -130.0342522  0.228583E-01  0.401E-01    0.08       1.0  T
  22   -130.0557210 -0.214688E-01  0.117E-01    0.13       1.0  T
  23   -130.0572857 -0.156466E-02  0.477E-02    0.15       1.0  T
  24   -130.0575103 -0.224684E-03  0.226E-02    0.17       1.0  T
  25   -130.0574488  0.615585E-04  0.296E-02    0.17       1.0  T
  26   -130.0573686  0.801683E-04  0.379E-02    0.17       1.0  T
  27   -130.0574279 -0.593200E-04  0.323E-02    0.17       1.0  T
  28   -130.0574923 -0.643417E-04  0.248E-02    0.17       1.0  T
  29   -130.0575135 -0.212399E-04  0.218E-02    0.17       1.0  T
  30   -130.0575445 -0.309378E-04  0.166E-02    0.17       1.0  T
  31   -130.0575691 -0.246724E-04  0.109E-02    0.17       1.1  T
  32   -130.0575780 -0.885445E-05  0.788E-03    0.17       1.5  T
  33   -130.0575811 -0.315257E-05  0.636E-03    0.17       1.9  T
  34   -130.0575838 -0.263317E-05  0.471E-03    0.17       2.6  T
  35   -130.0575850 -0.127994E-05  0.341E-03    0.17       3.6  T
  36   -130.0575860 -0.976922E-06  0.172E-03    0.17       7.0  T
  37   -130.0575862 -0.217403E-06  0.101E-03    0.17      12.0  T
  38   -130.0575863 -0.102719E-06  0.328E-04    0.17      37.0  T
  39   -130.0575864 -0.118279E-07  0.478E-05    0.17     253.9  T

   *** convergence criteria satisfied after 39 iterations ***

         #    Occupation            Energy/Eh            Energy/eV
      -------------------------------------------------------------
         1        2.0000           -0.5451725             -14.8349
       ...           ...                  ...                  ...
       109        2.0000           -0.2049914              -5.5781
       110        2.0000           -0.2011522              -5.4736
       111        1.9999           -0.1839929              -5.0067
       112        1.9997           -0.1832375              -4.9861
       113        1.9984           -0.1815388              -4.9399
       114        1.9551           -0.1783480              -4.8531
       115        1.9447           -0.1781456              -4.8476 (HOMO)
       116        0.1022           -0.1719880              -4.6800 (LUMO)
       117        0.0000           -0.1631710              -4.4401
       118                         -0.1361055              -3.7036
       119                         -0.1270840              -3.4581
       120                         -0.1052225              -2.8632
       ...                                ...                  ...
       216                          1.2019800              32.7075
      -------------------------------------------------------------
                  HL-Gap            0.0061577 Eh            0.1676 eV
             Fermi-level           -0.1747635 Eh           -4.7556 eV

 SCC (total)                   0 d,  0 h,  0 min,  0.453 sec
 SCC setup                      ...        0 min,  0.001 sec (  0.221%)
 Dispersion                     ...        0 min,  0.002 sec (  0.441%)
 classical contributions        ...        0 min,  0.000 sec (  0.000%)
 integral evaluation            ...        0 min,  0.010 sec (  2.208%)
 iterations                     ...        0 min,  0.417 sec ( 92.053%)
 molecular gradient             ...        0 min,  0.022 sec (  4.857%)
 printout                       ...        0 min,  0.001 sec (  0.221%)

         :::::::::::::::::::::::::::::::::::::::::::::::::::::
         ::                     SUMMARY                     ::
         :::::::::::::::::::::::::::::::::::::::::::::::::::::
         :: total energy            -128.426834327323 Eh    ::
         :: gradient norm              0.291466463987 Eh/a0 ::
         :: HOMO-LUMO gap              0.167558467198 eV    ::
         ::.................................................::
         :: HOMO orbital eigv.        -4.847589593830 eV    ::
         :: LUMO orbital eigv.        -4.680031126631 eV    ::
         ::.................................................::
         :: SCC energy              -130.057280622291 Eh    ::
         :: -> isotropic ES            0.503851877150 Eh    ::
         :: -> anisotropic ES         -0.012603634879 Eh    ::
         :: -> anisotropic XC          0.072218812905 Eh    ::
         :: -> dispersion             -0.095982890968 Eh    ::
         :: repulsion energy           1.630446294968 Eh    ::
         :: add. restraining           0.000000000000 Eh    ::
         :: total charge              -2.000000000001 e     ::
         ::.................................................::
         :: atomisation energy        23.769969865365 Eh    ::
         :::::::::::::::::::::::::::::::::::::::::::::::::::::

           -------------------------------------------------
          |                Property Printout                |
           -------------------------------------------------

    * Orbital Energies and Occupations

         #    Occupation            Energy/Eh            Energy/eV
      -------------------------------------------------------------
         1        2.0000           -0.5451725             -14.8349
       ...           ...                  ...                  ...
       103        2.0000           -0.2262420              -6.1564
       104        2.0000           -0.2233775              -6.0784
       105        2.0000           -0.2203136              -5.9950
       106        2.0000           -0.2182020              -5.9376
       107        2.0000           -0.2076681              -5.6509
       108        2.0000           -0.2071672              -5.6373
       109        2.0000           -0.2049914              -5.5781
       110        2.0000           -0.2011522              -5.4736
       111        1.9999           -0.1839929              -5.0067
       112        1.9997           -0.1832375              -4.9861
       113        1.9984           -0.1815388              -4.9399
       114        1.9551           -0.1783480              -4.8531
       115        1.9447           -0.1781456              -4.8476 (HOMO)
       116        0.1022           -0.1719880              -4.6800 (LUMO)
       117        0.0000           -0.1631710              -4.4401
       118                         -0.1361055              -3.7036
       119                         -0.1270840              -3.4581
       120                         -0.1052225              -2.8632
       121                         -0.1000653              -2.7229
       122                         -0.0974553              -2.6519
       123                         -0.0961583              -2.6166
       124                         -0.0852292              -2.3192
       125                         -0.0697552              -1.8981
       126                         -0.0626648              -1.7052
       ...                                ...                  ...
       216                          1.2019800              32.7075
      -------------------------------------------------------------
                  HL-Gap            0.0061577 Eh            0.1676 eV
             Fermi-level           -0.1747635 Eh           -4.7556 eV

     #   Z          covCN         q      C6AA      α(0)
     1   7 N        2.627    -0.270    26.986     7.715
     2   6 C        2.894     0.060    26.647     8.463
     3   6 C        2.894     0.040    27.094     8.534
     4   7 N        1.898    -0.140    24.822     7.386
     5   7 N        1.898    -0.138    24.769     7.378
     6   6 C        2.896     0.066    26.512     8.442
     7   6 C        2.912    -0.034    28.853     8.808
     8   6 C        2.913    -0.028    28.711     8.786
     9   6 C        2.965     0.015    27.681     8.630
    10   6 C        2.965     0.015    27.668     8.628
    11   6 C        2.912    -0.039    28.957     8.824
    12   6 C        2.910    -0.038    28.933     8.820
    13   6 C        2.901     0.069    26.458     8.434
    14   7 N        1.902    -0.160    25.251     7.450
    15   7 N        1.904    -0.143    24.878     7.395
    16   6 C        2.896     0.049    26.890     8.502
    17   6 C        2.960    -0.034    28.848     8.810
    18   6 C        2.956    -0.080    30.010     8.985
    19  16 S        3.616     1.060   104.949    17.242
    20   8 O        0.859    -0.636    27.019     6.969
    21   8 O        0.859    -0.627    26.781     6.938
    22   8 O        0.854    -0.705    28.856     7.202
    23   6 C        2.999     0.023    27.469     8.597
    24   6 C        2.915    -0.028    28.696     8.784
    25   6 C        2.909    -0.033    28.833     8.805
    26   6 C        2.909    -0.040    28.989     8.829
    27   6 C        2.915    -0.040    29.002     8.831
    28   6 C        2.976    -0.004    28.125     8.699
    29   6 C        2.893     0.066    26.518     8.443
    30   7 N        2.627    -0.263    26.813     7.690
    31   6 C        2.912    -0.033    28.826     8.804
    32   6 C        2.913    -0.031    28.783     8.797
    33   6 C        2.912    -0.031    28.775     8.796
    34   6 C        2.911    -0.036    28.902     8.816
    35   6 C        2.961    -0.035    28.859     8.811
    36   6 C        2.956    -0.085    30.118     9.001
    37  16 S        3.618     1.064   104.819    17.231
    38   8 O        0.859    -0.634    26.966     6.962
    39   8 O        0.859    -0.636    27.022     6.969
    40   8 O        0.854    -0.703    28.781     7.193
    41   6 C        2.998     0.021    27.527     8.606
    42   6 C        2.915    -0.028    28.705     8.786
    43   6 C        2.909    -0.036    28.884     8.813
    44   6 C        2.909    -0.040    29.004     8.831
    45   6 C        2.915    -0.043    29.060     8.840
    46   6 C        2.975    -0.004    28.127     8.699
    47   1 H        0.858     0.160     1.333     1.809
    48   1 H        0.858     0.143     1.449     1.886
    49   1 H        0.925     0.036     2.500     2.473
    50   1 H        0.925     0.037     2.493     2.469
    51   1 H        0.925     0.027     2.631     2.537
    52   1 H        0.925     0.049     2.330     2.387
    53   1 H        0.925     0.074     2.037     2.232
    54   1 H        0.926     0.075     2.035     2.231
    55   1 H        0.925     0.022     2.702     2.570
    56   1 H        0.925     0.012     2.852     2.641
    57   1 H        0.926     0.023     2.686     2.563
    58   1 H        0.858     0.148     1.416     1.864
    59   1 H        0.858     0.162     1.322     1.801
    60   1 H        0.925     0.044     2.400     2.423
    61   1 H        0.925     0.052     2.294     2.369
    62   1 H        0.925     0.032     2.557     2.501
    63   1 H        0.925     0.021     2.717     2.578
    64   1 H        0.925     0.066     2.130     2.282
    65   1 H        0.926     0.072     2.063     2.246
    66   1 H        0.925     0.022     2.705     2.572
    67   1 H        0.925     0.011     2.877     2.652
    68   1 H        0.926     0.016     2.792     2.613

 Mol. C6AA /au·bohr⁶  :      81259.001099
 Mol. C8AA /au·bohr⁸  :    2117586.358305
 Mol. α(0) /au        :        452.677365


Wiberg/Mayer (AO) data.
largest (>0.10) Wiberg bond orders for each atom

 ---------------------------------------------------------------------------
     #   Z sym  total        # sym  WBO       # sym  WBO       # sym  WBO
 ---------------------------------------------------------------------------
     1   7 N    3.242 --     2 C    1.133    48 H    0.957    47 H    0.956
     2   6 C    3.938 --     3 C    1.338    46 C    1.237     1 N    1.133
     3   6 C    3.974 --     2 C    1.338    35 C    1.292     4 N    1.097
     4   7 N    3.045 --     5 N    1.707     3 C    1.097
     5   7 N    3.047 --     4 N    1.707     6 C    1.090
     6   6 C    3.969 --     7 C    1.354    34 C    1.344     5 N    1.090
     7   6 C    3.975 --     8 C    1.464     6 C    1.354    49 H    0.970
     8   6 C    3.984 --     7 C    1.464     9 C    1.375    50 H    0.968
     9   6 C    3.974 --     8 C    1.375    33 C    1.372    10 C    1.053
    10   6 C    3.967 --    32 C    1.373    11 C    1.371     9 C    1.053
    11   6 C    3.986 --    12 C    1.475    10 C    1.371    51 H    0.969
    12   6 C    3.981 --    11 C    1.475    13 C    1.343    52 H    0.968
    13   6 C    3.968 --    31 C    1.355    12 C    1.343    14 N    1.107
    14   7 N    3.002 --    15 N    1.687    13 C    1.107
    15   7 N    3.025 --    14 N    1.687    16 C    1.122
    16   6 C    3.972 --    29 C    1.326    17 C    1.299    15 N    1.122
    17   6 C    3.980 --    18 C    1.511    16 C    1.299    53 H    0.960
    18   6 C    3.969 --    17 C    1.511    23 C    1.260    19 S    0.745
    19  16 S    4.960 --    21 O    1.493    20 O    1.477    22 O    1.216
                            18 C    0.745
    20   8 O    1.798 --    19 S    1.477    22 O    0.112    21 O    0.103
    21   8 O    1.802 --    19 S    1.493    22 O    0.108    20 O    0.103
    22   8 O    1.562 --    19 S    1.216    20 O    0.112    21 O    0.108
    23   6 C    3.983 --    24 C    1.304    18 C    1.260    28 C    1.229
    24   6 C    3.983 --    25 C    1.511    23 C    1.304    54 H    0.964
                            27 C    0.126
    25   6 C    3.976 --    24 C    1.511    26 C    1.363    55 H    0.972
    26   6 C    3.991 --    27 C    1.511    25 C    1.363    56 H    0.972
    27   6 C    3.978 --    26 C    1.511    28 C    1.302    57 H    0.967
                            24 C    0.126
    28   6 C    3.987 --    27 C    1.302    29 C    1.243    23 C    1.229
    29   6 C    3.950 --    16 C    1.326    28 C    1.243    30 N    1.137
    30   7 N    3.227 --    29 C    1.137    58 H    0.954    59 H    0.950
    31   6 C    3.979 --    32 C    1.468    13 C    1.355    60 H    0.968
    32   6 C    3.984 --    31 C    1.468    10 C    1.373    61 H    0.968
    33   6 C    3.985 --    34 C    1.469     9 C    1.372    62 H    0.968
    34   6 C    3.981 --    33 C    1.469     6 C    1.344    63 H    0.970
    35   6 C    3.983 --    36 C    1.512     3 C    1.292    64 H    0.959
    36   6 C    3.972 --    35 C    1.512    41 C    1.261    37 S    0.740
    37  16 S    4.955 --    38 O    1.478    39 O    1.478    40 O    1.231
                            36 C    0.740
    38   8 O    1.798 --    37 S    1.478    40 O    0.110    39 O    0.104
    39   8 O    1.796 --    37 S    1.478    40 O    0.111    38 O    0.104
    40   8 O    1.568 --    37 S    1.231    39 O    0.111    38 O    0.110
    41   6 C    3.985 --    42 C    1.305    36 C    1.261    46 C    1.228
    42   6 C    3.982 --    43 C    1.510    41 C    1.305    65 H    0.965
                            45 C    0.125
    43   6 C    3.978 --    42 C    1.510    44 C    1.364    66 H    0.972
    44   6 C    3.990 --    45 C    1.509    43 C    1.364    67 H    0.972
    45   6 C    3.979 --    44 C    1.509    46 C    1.304    68 H    0.967
                            42 C    0.125
    46   6 C    3.986 --    45 C    1.304     2 C    1.237    41 C    1.228
    47   1 H    0.974 --     1 N    0.956
    48   1 H    0.979 --     1 N    0.957
    49   1 H    0.998 --     7 C    0.970
    50   1 H    0.997 --     8 C    0.968
    51   1 H    0.999 --    11 C    0.969
    52   1 H    0.997 --    12 C    0.968
    53   1 H    0.993 --    17 C    0.960
    54   1 H    0.994 --    24 C    0.964
    55   1 H    0.999 --    25 C    0.972
    56   1 H    0.999 --    26 C    0.972
    57   1 H    0.999 --    27 C    0.967
    58   1 H    0.977 --    30 N    0.954
    59   1 H    0.973 --    30 N    0.950
    60   1 H    0.998 --    31 C    0.968
    61   1 H    0.997 --    32 C    0.968
    62   1 H    0.999 --    33 C    0.968
    63   1 H    0.999 --    34 C    0.970
    64   1 H    0.994 --    35 C    0.959
    65   1 H    0.994 --    42 C    0.965
    66   1 H    0.999 --    43 C    0.972
    67   1 H    0.999 --    44 C    0.972
    68   1 H    0.999 --    45 C    0.967
 ---------------------------------------------------------------------------

Topologies differ in total number of bonds
Writing topology from bond orders to xtbtopo.mol

molecular dipole:
                 x           y           z       tot (Debye)
 q only:       -9.911      -0.496       5.090
   full:      -10.228      -1.065       5.400      29.523
molecular quadrupole (traceless):
                xx          xy          yy          xz          yz          zz
 q only:     -422.439    -146.457     204.537     -38.398     -14.283     217.903
  q+dip:     -429.001    -149.649     207.959     -49.158     -18.333     221.043
   full:     -431.890    -148.027     204.134     -45.751     -13.536     227.755


           -------------------------------------------------
          | TOTAL ENERGY             -128.426834327323 Eh   |
          | GRADIENT NORM               0.291466463987 Eh/α |
          | HOMO-LUMO GAP               0.167558467198 eV   |
           -------------------------------------------------
########################################################################
[WARNING] Runtime exception occurred
-2- restart_readRestart: Dimension missmatch in restart file.
-1- restart_readRestart: Number of electron missmatch in restart file.
########################################################################

------------------------------------------------------------------------
 unit  open   action     filename
  129 false : read       dft_tmp\120.xyz
  129 false : read       dft_tmp\120.xyz
  129 false : read       dft_tmp\120.xyz
  129 false : read       C:\Users\nkapa\Downloads\xtb-6.7.1pre-windows-x86_64\xtb-6.7.1\share\xtb\param_gfn2-xtb.txt
  129 false : read       xtbrestart
  129 false : replaced   charges
  129 false : replaced   wbo
  129 false : replaced   xtbtopo.mol
  129 false : replaced   xtbrestart

------------------------------------------------------------------------
 * finished run on 2025/06/23 at 11:31:45.281     
------------------------------------------------------------------------
 total:
 * wall-time:     0 d,  0 h,  0 min,  0.508 sec
 *  cpu-time:     0 d,  0 h,  0 min,  3.875 sec
 * ratio c/w:     7.628 speedup
 SCF:
 * wall-time:     0 d,  0 h,  0 min,  0.454 sec
 *  cpu-time:     0 d,  0 h,  0 min,  3.531 sec
 * ratio c/w:     7.778 speedup

normal termination of xtb
