      -----------------------------------------------------------      
     |                   =====================                   |     
     |                           x T B                           |     
     |                   =====================                   |     
     |                         S. Grimme                         |     
     |          Mulliken Center for Theoretical Chemistry        |     
     |                    University of Bonn                     |     
      -----------------------------------------------------------      

   * xtb version 6.7.1pre (5071a88) compiled by 'Marcel@Raven' on 2024-07-23

   xtb is free software: you can redistribute it and/or modify it under
   the terms of the GNU Lesser General Public License as published by
   the Free Software Foundation, either version 3 of the License, or
   (at your option) any later version.
   
   xtb is distributed in the hope that it will be useful,
   but WITHOUT ANY WARRANTY; without even the implied warranty of
   MERCHANTABILITY or FITNESS FOR A PARTICULAR PURPOSE.  See the
   GNU Lesser General Public License for more details.
   
   Cite this work as:
   * C. Bannwarth, E. Caldeweyher, S. Ehlert, A. Hansen, P. Pracht,
     J. Seibert, S. Spicher, S. Grimme, WIREs Comput. Mol. Sci., 2020, 11,
     e01493. DOI: 10.1002/wcms.1493
   
   for GFN2-xTB:
   * C. Bannwarth, S. Ehlert and S. Grimme., J. Chem. Theory Comput., 2019,
     15, 1652-1671. DOI: 10.1021/acs.jctc.8b01176
   for GFN1-xTB:
   * S. Grimme, C. Bannwarth, P. Shushkov, J. Chem. Theory Comput., 2017,
     13, 1989-2009. DOI: 10.1021/acs.jctc.7b00118
   for GFN0-xTB:
   * P. Pracht, E. Caldeweyher, S. Ehlert, S. Grimme, ChemRxiv, 2019, preprint.
     DOI: 10.26434/chemrxiv.8326202.v1
   for GFN-FF:
   * S. Spicher and S. Grimme, Angew. Chem. Int. Ed., 2020, 59, 15665-15673.
     DOI: 10.1002/anie.202004239
   
   for ALPB and GBSA implicit solvation:
   * S. Ehlert, M. Stahn, S. Spicher, S. Grimme, J. Chem. Theory Comput.,
     2021, 17, 4250-4261. DOI: 10.1021/acs.jctc.1c00471
   
   for ddCOSMO and CPCM-X implicit solvation:
   * M. Stahn, S. Ehlert, S. Grimme, J. Phys. Chem. A,
     2023, XX, XXXX-XXXX. DOI: 10.1021/acs.jpca.3c04382
   
   for DFT-D4:
   * E. Caldeweyher, C. Bannwarth and S. Grimme, J. Chem. Phys., 2017,
     147, 034112. DOI: 10.1063/1.4993215
   * E. Caldeweyher, S. Ehlert, A. Hansen, H. Neugebauer, S. Spicher,
     C. Bannwarth and S. Grimme, J. Chem. Phys., 2019, 150, 154122.
     DOI: 10.1063/1.5090222
   * E. Caldeweyher, J.-M. Mewes, S. Ehlert and S. Grimme, Phys. Chem. Chem. Phys.
     2020, 22, 8499-8512. DOI: 10.1039/D0CP00502A
   
   for sTDA-xTB:
   * S. Grimme and C. Bannwarth, J. Chem. Phys., 2016, 145, 054103.
     DOI: 10.1063/1.4959605
   
   in the mass-spec context:
   * V. Asgeirsson, C. Bauer and S. Grimme, Chem. Sci., 2017, 8, 4879.
     DOI: 10.1039/c7sc00601b
   * J. Koopman and S. Grimme, ACS Omega 2019, 4, 12, 15120-15133.
     DOI: 10.1021/acsomega.9b02011
   
   for metadynamics refer to:
   * S. Grimme, J. Chem. Theory Comput., 2019, 155, 2847-2862
     DOI: 10.1021/acs.jctc.9b00143
   
   for SPH calculations refer to:
   * S. Spicher and S. Grimme, J. Chem. Theory Comput., 2021, 17, 1701-1714
     DOI: 10.1021/acs.jctc.0c01306
   
   for ONIOM refer to:
   * C. Plett, A. Katbashev, S. Ehlert, S. Grimme, M. Bursch,
     Phys. Chem. Chem. Phys., 2023, 25, 17860-17868. DOI: 10.1039/D3CP02178E
   
   for DIPRO refer to:
   * J. Kohn, N. Gildemeister, S. Grimme, D. Fazzi, A. Hansen,
     J. Chem. Phys., 2023, just accepted.
   
   for PTB refer to:
   * S. Grimme, M. Mueller, A. Hansen, J. Chem. Phys., 2023, 158, 124111.
     DOI: 10.1063/5.0137838
   
   with help from (in alphabetical order)
   P. Atkinson, C. Bannwarth, F. Bohle, G. Brandenburg, E. Caldeweyher
   M. Checinski, S. Dohm, S. Ehlert, S. Ehrlich, I. Gerasimov, C. Hölzer
   A. Katbashev, J. Kohn, J. Koopman, C. Lavigne, S. Lehtola, F. März, M. Müller,
   F. Musil, H. Neugebauer, J. Pisarek, C. Plett, P. Pracht, F. Pultar,
   J. Seibert, P. Shushkov, S. Spicher, M. Stahn, M. Steiner, T. Strunk,
   J. Stückrath, T. Rose, and J. Unsleber
   
 * started run on 2025/06/23 at 11:31:45.561     
$$$$$$$$$$$$$$$$$$$$$$$$$$$$$$$$$$$$$$$$$$$$$$$$$$$$$$$$$$$$$$$$$$$$$$$$
 CONSTRAINTS & SCANS: DEBUG SECTION
$$$$$$$$$$$$$$$$$$$$$$$$$$$$$$$$$$$$$$$$$$$$$$$$$$$$$$$$$$$$$$$$$$$$$$$$
   ID    Z sym.   atoms
    1    6 C      1-4
    2    8 O      5, 6, 8
    3    7 N      7
    4    1 H      9-17
$$$$$$$$$$$$$$$$$$$$$$$$$$$$$$$$$$$$$$$$$$$$$$$$$$$$$$$$$$$$$$$$$$$$$$$$

           -------------------------------------------------
          |                Calculation Setup                |
           -------------------------------------------------

          program call               : C:\Users\nkapa\Downloads\xtb-6.7.1pre-windows-x86_64\xtb-6.7.1\bin\xtb.EXE dft_tmp\123.xyz --gfn2 --parallel 8 --verbose
          coordinate file            : dft_tmp\123.xyz
          xtbhome directory          : C:\Users\nkapa\AppData\Roaming\SPB_Data
          path for xtb               : C:\Users\nkapa\Downloads\xtb-6.7.1pre-windows-x86_64\xtb-6.7.1\share\xtb
          xcontrol input file        : dft_tmp\123.xyz
          omp threads                :                     8


           -------------------------------------------------
          |                 G F N 2 - x T B                 |
           -------------------------------------------------

        Reference                      10.1021/acs.jctc.8b01176
      * Hamiltonian:
        H0-scaling (s, p, d)           1.850000    2.230000    2.230000
        zeta-weighting                 0.500000
      * Dispersion:
        s8                             2.700000
        a1                             0.520000
        a2                             5.000000
        s9                             5.000000
      * Repulsion:
        kExp                           1.500000    1.000000
        rExp                           1.000000
      * Coulomb:
        alpha                          2.000000
        third order                    shell-resolved
        anisotropic                    true
        a3                             3.000000
        a5                             4.000000
        cn-shift                       1.200000
        cn-exp                         4.000000
        max-rad                        5.000000


          ...................................................
          :                      SETUP                      :
          :.................................................:
          :  # basis functions                  41          :
          :  # atomic orbitals                  41          :
          :  # shells                           25          :
          :  # electrons                        48          :
          :  max. iterations                   250          :
          :  Hamiltonian                  GFN2-xTB          :
          :  restarted?                      false          :
          :  GBSA solvation                  false          :
          :  PC potential                    false          :
          :  electronic temp.          300.0000000     K    :
          :  accuracy                    1.0000000          :
          :  -> integral cutoff          0.2500000E+02      :
          :  -> integral neglect         0.1000000E-07      :
          :  -> SCF convergence          0.1000000E-05 Eh   :
          :  -> wf. convergence          0.1000000E-03 e    :
          :  Broyden damping             0.4000000          :
          :  net charge                          0          :
          :  unpaired electrons                  0          :
          ...................................................

 iter      E             dE          RMSdq      gap      omega  full diag
   1    -28.4059469 -0.284059E+02  0.426E+00    3.44       0.0  T
   2    -28.4527444 -0.467974E-01  0.218E+00    3.14       1.0  T
   3    -28.4555481 -0.280369E-02  0.132E+00    3.52       1.0  T
   4    -28.4616807 -0.613260E-02  0.224E-01    3.13       1.0  T
   5    -28.4620267 -0.346020E-03  0.853E-02    3.12       1.0  T
   6    -28.4620493 -0.225954E-04  0.391E-02    3.10       1.0  T
   7    -28.4620517 -0.241018E-05  0.842E-03    3.10       2.9  T
   8    -28.4620518 -0.130672E-06  0.347E-03    3.10       7.0  T
   9    -28.4620519 -0.388166E-07  0.109E-03    3.10      22.3  T
  10    -28.4620519 -0.154255E-08  0.441E-04    3.10      55.0  T
  11    -28.4620519 -0.657170E-09  0.161E-04    3.10     150.7  T

   *** convergence criteria satisfied after 11 iterations ***

         #    Occupation            Energy/Eh            Energy/eV
      -------------------------------------------------------------
         1        2.0000           -0.7349006             -19.9977
       ...           ...                  ...                  ...
        18        2.0000           -0.4779274             -13.0051
        19        2.0000           -0.4741908             -12.9034
        20        2.0000           -0.4716331             -12.8338
        21        2.0000           -0.4537463             -12.3471
        22        2.0000           -0.4356122             -11.8536
        23        2.0000           -0.4276662             -11.6374
        24        2.0000           -0.3805933             -10.3565 (HOMO)
        25                         -0.2665110              -7.2521 (LUMO)
        26                         -0.0527784              -1.4362
        27                          0.0085213               0.2319
        28                          0.0417427               1.1359
        29                          0.0562453               1.5305
       ...                                ...                  ...
        41                          0.4526915              12.3184
      -------------------------------------------------------------
                  HL-Gap            0.1140823 Eh            3.1043 eV
             Fermi-level           -0.3235522 Eh           -8.8043 eV

 SCC (total)                   0 d,  0 h,  0 min,  0.019 sec
 SCC setup                      ...        0 min,  0.001 sec (  5.264%)
 Dispersion                     ...        0 min,  0.000 sec (  0.000%)
 classical contributions        ...        0 min,  0.000 sec (  0.000%)
 integral evaluation            ...        0 min,  0.001 sec (  5.263%)
 iterations                     ...        0 min,  0.014 sec ( 73.684%)
 molecular gradient             ...        0 min,  0.002 sec ( 10.527%)
 printout                       ...        0 min,  0.001 sec (  5.263%)

         :::::::::::::::::::::::::::::::::::::::::::::::::::::
         ::                     SUMMARY                     ::
         :::::::::::::::::::::::::::::::::::::::::::::::::::::
         :: total energy             -28.249926143640 Eh    ::
         :: gradient norm              0.140455852893 Eh/a0 ::
         :: HOMO-LUMO gap              3.104337126406 eV    ::
         ::.................................................::
         :: HOMO orbital eigv.       -10.356471558795 eV    ::
         :: LUMO orbital eigv.        -7.252134432389 eV    ::
         ::.................................................::
         :: SCC energy               -28.462006541132 Eh    ::
         :: -> isotropic ES            0.083361856626 Eh    ::
         :: -> anisotropic ES          0.004026931582 Eh    ::
         :: -> anisotropic XC          0.006574051848 Eh    ::
         :: -> dispersion             -0.010907211953 Eh    ::
         :: repulsion energy           0.212080397492 Eh    ::
         :: add. restraining           0.000000000000 Eh    ::
         :: total charge               0.000000000000 e     ::
         ::.................................................::
         :: atomisation energy         4.389008578917 Eh    ::
         :::::::::::::::::::::::::::::::::::::::::::::::::::::

           -------------------------------------------------
          |                Property Printout                |
           -------------------------------------------------

    * Orbital Energies and Occupations

         #    Occupation            Energy/Eh            Energy/eV
      -------------------------------------------------------------
         1        2.0000           -0.7349006             -19.9977
       ...           ...                  ...                  ...
        12        2.0000           -0.5498129             -14.9612
        13        2.0000           -0.5375689             -14.6280
        14        2.0000           -0.5267965             -14.3349
        15        2.0000           -0.5169765             -14.0676
        16        2.0000           -0.5076093             -13.8128
        17        2.0000           -0.4872935             -13.2599
        18        2.0000           -0.4779274             -13.0051
        19        2.0000           -0.4741908             -12.9034
        20        2.0000           -0.4716331             -12.8338
        21        2.0000           -0.4537463             -12.3471
        22        2.0000           -0.4356122             -11.8536
        23        2.0000           -0.4276662             -11.6374
        24        2.0000           -0.3805933             -10.3565 (HOMO)
        25                         -0.2665110              -7.2521 (LUMO)
        26                         -0.0527784              -1.4362
        27                          0.0085213               0.2319
        28                          0.0417427               1.1359
        29                          0.0562453               1.5305
        30                          0.0664018               1.8069
        31                          0.1009354               2.7466
        32                          0.1212197               3.2986
        33                          0.1284513               3.4953
        34                          0.1322079               3.5976
        35                          0.1437554               3.9118
       ...                                ...                  ...
        41                          0.4526915              12.3184
      -------------------------------------------------------------
                  HL-Gap            0.1140823 Eh            3.1043 eV
             Fermi-level           -0.3235522 Eh           -8.8043 eV

     #   Z          covCN         q      C6AA      α(0)
     1   6 C        3.740    -0.120    22.881     6.825
     2   6 C        3.722     0.109    18.901     6.209
     3   6 C        3.778     0.028    20.126     6.391
     4   6 C        2.691     0.343    21.176     7.531
     5   8 O        0.856    -0.404    21.752     6.253
     6   8 O        1.647    -0.378    20.424     6.101
     7   7 N        2.627    -0.327    28.412     7.916
     8   8 O        1.652    -0.431    21.456     6.253
     9   1 H        0.922     0.057     2.230     2.336
    10   1 H        0.922     0.040     2.447     2.446
    11   1 H        0.921     0.038     2.471     2.458
    12   1 H        0.921     0.058     2.224     2.332
    13   1 H        0.921     0.051     2.309     2.377
    14   1 H        0.796     0.331     0.635     1.253
    15   1 H        0.857     0.159     1.342     1.815
    16   1 H        0.857     0.154     1.372     1.835
    17   1 H        0.801     0.289     0.754     1.365

 Mol. C6AA /au·bohr⁶  :       2387.614011
 Mol. C8AA /au·bohr⁸  :      50608.135970
 Mol. α(0) /au        :         71.695324


Wiberg/Mayer (AO) data.
largest (>0.10) Wiberg bond orders for each atom

 ---------------------------------------------------------------------------
     #   Z sym  total        # sym  WBO       # sym  WBO       # sym  WBO
 ---------------------------------------------------------------------------
     1   6 C    3.994 --     2 C    0.998    11 H    0.985    10 H    0.984
                             9 H    0.984
     2   6 C    3.954 --     8 O    1.002     1 C    0.998    12 H    0.957
                             3 C    0.933
     3   6 C    3.986 --     7 N    1.015     4 C    0.977    13 H    0.960
                             2 C    0.933
     4   6 C    3.913 --     5 O    1.759     6 O    1.124     3 C    0.977
     5   8 O    2.022 --     4 C    1.759     6 O    0.176
     6   8 O    2.192 --     4 C    1.124    14 H    0.863     5 O    0.176
     7   7 N    3.010 --     3 C    1.015    16 H    0.959    15 H    0.958
     8   8 O    1.984 --     2 C    1.002    17 H    0.895
     9   1 H    0.997 --     1 C    0.984
    10   1 H    0.998 --     1 C    0.984
    11   1 H    0.999 --     1 C    0.985
    12   1 H    0.997 --     2 C    0.957
    13   1 H    0.997 --     3 C    0.960
    14   1 H    0.890 --     6 O    0.863
    15   1 H    0.975 --     7 N    0.958
    16   1 H    0.976 --     7 N    0.959
    17   1 H    0.916 --     8 O    0.895
 ---------------------------------------------------------------------------

Topologies differ in total number of bonds
Writing topology from bond orders to xtbtopo.mol

molecular dipole:
                 x           y           z       tot (Debye)
 q only:        0.296       0.922      -0.502
   full:        0.491       1.135      -0.464       3.358
molecular quadrupole (traceless):
                xx          xy          yy          xz          yz          zz
 q only:       -2.062      -1.922       0.770       0.149       3.883       1.292
  q+dip:       -3.945      -3.049       1.000      -1.589       3.613       2.945
   full:       -3.821      -2.642       0.861      -1.289       4.192       2.961


           -------------------------------------------------
          | TOTAL ENERGY              -28.249926143640 Eh   |
          | GRADIENT NORM               0.140455852893 Eh/α |
          | HOMO-LUMO GAP               3.104337126406 eV   |
           -------------------------------------------------
########################################################################
[WARNING] Runtime exception occurred
-2- restart_readRestart: Dimension missmatch in restart file.
-1- restart_readRestart: Number of electron missmatch in restart file.
########################################################################

------------------------------------------------------------------------
 unit  open   action     filename
  129 false : read       dft_tmp\123.xyz
  129 false : read       dft_tmp\123.xyz
  129 false : read       dft_tmp\123.xyz
  129 false : read       C:\Users\nkapa\Downloads\xtb-6.7.1pre-windows-x86_64\xtb-6.7.1\share\xtb\param_gfn2-xtb.txt
  129 false : read       xtbrestart
  129 false : replaced   charges
  129 false : replaced   wbo
  129 false : replaced   xtbtopo.mol
  129 false : replaced   xtbrestart

------------------------------------------------------------------------
 * finished run on 2025/06/23 at 11:31:45.629     
------------------------------------------------------------------------
 total:
 * wall-time:     0 d,  0 h,  0 min,  0.066 sec
 *  cpu-time:     0 d,  0 h,  0 min,  0.375 sec
 * ratio c/w:     5.682 speedup
 SCF:
 * wall-time:     0 d,  0 h,  0 min,  0.019 sec
 *  cpu-time:     0 d,  0 h,  0 min,  0.094 sec
 * ratio c/w:     4.934 speedup

normal termination of xtb
