      -----------------------------------------------------------      
     |                   =====================                   |     
     |                           x T B                           |     
     |                   =====================                   |     
     |                         S. Grimme                         |     
     |          Mulliken Center for Theoretical Chemistry        |     
     |                    University of Bonn                     |     
      -----------------------------------------------------------      

   * xtb version 6.7.1pre (5071a88) compiled by 'Marcel@Raven' on 2024-07-23

   xtb is free software: you can redistribute it and/or modify it under
   the terms of the GNU Lesser General Public License as published by
   the Free Software Foundation, either version 3 of the License, or
   (at your option) any later version.
   
   xtb is distributed in the hope that it will be useful,
   but WITHOUT ANY WARRANTY; without even the implied warranty of
   MERCHANTABILITY or FITNESS FOR A PARTICULAR PURPOSE.  See the
   GNU Lesser General Public License for more details.
   
   Cite this work as:
   * C. Bannwarth, E. Caldeweyher, S. Ehlert, A. Hansen, P. Pracht,
     J. Seibert, S. Spicher, S. Grimme, WIREs Comput. Mol. Sci., 2020, 11,
     e01493. DOI: 10.1002/wcms.1493
   
   for GFN2-xTB:
   * C. Bannwarth, S. Ehlert and S. Grimme., J. Chem. Theory Comput., 2019,
     15, 1652-1671. DOI: 10.1021/acs.jctc.8b01176
   for GFN1-xTB:
   * S. Grimme, C. Bannwarth, P. Shushkov, J. Chem. Theory Comput., 2017,
     13, 1989-2009. DOI: 10.1021/acs.jctc.7b00118
   for GFN0-xTB:
   * P. Pracht, E. Caldeweyher, S. Ehlert, S. Grimme, ChemRxiv, 2019, preprint.
     DOI: 10.26434/chemrxiv.8326202.v1
   for GFN-FF:
   * S. Spicher and S. Grimme, Angew. Chem. Int. Ed., 2020, 59, 15665-15673.
     DOI: 10.1002/anie.202004239
   
   for ALPB and GBSA implicit solvation:
   * S. Ehlert, M. Stahn, S. Spicher, S. Grimme, J. Chem. Theory Comput.,
     2021, 17, 4250-4261. DOI: 10.1021/acs.jctc.1c00471
   
   for ddCOSMO and CPCM-X implicit solvation:
   * M. Stahn, S. Ehlert, S. Grimme, J. Phys. Chem. A,
     2023, XX, XXXX-XXXX. DOI: 10.1021/acs.jpca.3c04382
   
   for DFT-D4:
   * E. Caldeweyher, C. Bannwarth and S. Grimme, J. Chem. Phys., 2017,
     147, 034112. DOI: 10.1063/1.4993215
   * E. Caldeweyher, S. Ehlert, A. Hansen, H. Neugebauer, S. Spicher,
     C. Bannwarth and S. Grimme, J. Chem. Phys., 2019, 150, 154122.
     DOI: 10.1063/1.5090222
   * E. Caldeweyher, J.-M. Mewes, S. Ehlert and S. Grimme, Phys. Chem. Chem. Phys.
     2020, 22, 8499-8512. DOI: 10.1039/D0CP00502A
   
   for sTDA-xTB:
   * S. Grimme and C. Bannwarth, J. Chem. Phys., 2016, 145, 054103.
     DOI: 10.1063/1.4959605
   
   in the mass-spec context:
   * V. Asgeirsson, C. Bauer and S. Grimme, Chem. Sci., 2017, 8, 4879.
     DOI: 10.1039/c7sc00601b
   * J. Koopman and S. Grimme, ACS Omega 2019, 4, 12, 15120-15133.
     DOI: 10.1021/acsomega.9b02011
   
   for metadynamics refer to:
   * S. Grimme, J. Chem. Theory Comput., 2019, 155, 2847-2862
     DOI: 10.1021/acs.jctc.9b00143
   
   for SPH calculations refer to:
   * S. Spicher and S. Grimme, J. Chem. Theory Comput., 2021, 17, 1701-1714
     DOI: 10.1021/acs.jctc.0c01306
   
   for ONIOM refer to:
   * C. Plett, A. Katbashev, S. Ehlert, S. Grimme, M. Bursch,
     Phys. Chem. Chem. Phys., 2023, 25, 17860-17868. DOI: 10.1039/D3CP02178E
   
   for DIPRO refer to:
   * J. Kohn, N. Gildemeister, S. Grimme, D. Fazzi, A. Hansen,
     J. Chem. Phys., 2023, just accepted.
   
   for PTB refer to:
   * S. Grimme, M. Mueller, A. Hansen, J. Chem. Phys., 2023, 158, 124111.
     DOI: 10.1063/5.0137838
   
   with help from (in alphabetical order)
   P. Atkinson, C. Bannwarth, F. Bohle, G. Brandenburg, E. Caldeweyher
   M. Checinski, S. Dohm, S. Ehlert, S. Ehrlich, I. Gerasimov, C. Hölzer
   A. Katbashev, J. Kohn, J. Koopman, C. Lavigne, S. Lehtola, F. März, M. Müller,
   F. Musil, H. Neugebauer, J. Pisarek, C. Plett, P. Pracht, F. Pultar,
   J. Seibert, P. Shushkov, S. Spicher, M. Stahn, M. Steiner, T. Strunk,
   J. Stückrath, T. Rose, and J. Unsleber
   
 * started run on 2025/06/23 at 11:31:47.496     
$$$$$$$$$$$$$$$$$$$$$$$$$$$$$$$$$$$$$$$$$$$$$$$$$$$$$$$$$$$$$$$$$$$$$$$$
 CONSTRAINTS & SCANS: DEBUG SECTION
$$$$$$$$$$$$$$$$$$$$$$$$$$$$$$$$$$$$$$$$$$$$$$$$$$$$$$$$$$$$$$$$$$$$$$$$
   ID    Z sym.   atoms
    1    8 O      1, 4, 6, 9, 11, 13, 16, 17, 20, 22, 24, 27, 28, 31, 33, 35,
                  38, 39, 42, 44, 46, 49, 50, 53, 55, 57, 60, 61, 64, 66
    2    6 C      2, 3, 5, 7, 8, 10, 12, 14, 15, 18, 19, 21, 23, 25, 26, 29,
                  30, 32, 34, 36, 37, 40, 41, 43, 45, 47, 48, 51, 52, 54, 56,
                  58, 59, 62, 63, 65
    3    1 H      67-126
$$$$$$$$$$$$$$$$$$$$$$$$$$$$$$$$$$$$$$$$$$$$$$$$$$$$$$$$$$$$$$$$$$$$$$$$

           -------------------------------------------------
          |                Calculation Setup                |
           -------------------------------------------------

          program call               : C:\Users\nkapa\Downloads\xtb-6.7.1pre-windows-x86_64\xtb-6.7.1\bin\xtb.EXE dft_tmp\129.xyz --gfn2 --parallel 8 --verbose
          coordinate file            : dft_tmp\129.xyz
          xtbhome directory          : C:\Users\nkapa\AppData\Roaming\SPB_Data
          path for xtb               : C:\Users\nkapa\Downloads\xtb-6.7.1pre-windows-x86_64\xtb-6.7.1\share\xtb
          xcontrol input file        : dft_tmp\129.xyz
          omp threads                :                     8


           -------------------------------------------------
          |                 G F N 2 - x T B                 |
           -------------------------------------------------

        Reference                      10.1021/acs.jctc.8b01176
      * Hamiltonian:
        H0-scaling (s, p, d)           1.850000    2.230000    2.230000
        zeta-weighting                 0.500000
      * Dispersion:
        s8                             2.700000
        a1                             0.520000
        a2                             5.000000
        s9                             5.000000
      * Repulsion:
        kExp                           1.500000    1.000000
        rExp                           1.000000
      * Coulomb:
        alpha                          2.000000
        third order                    shell-resolved
        anisotropic                    true
        a3                             3.000000
        a5                             4.000000
        cn-shift                       1.200000
        cn-exp                         4.000000
        max-rad                        5.000000


          ...................................................
          :                      SETUP                      :
          :.................................................:
          :  # basis functions                 324          :
          :  # atomic orbitals                 324          :
          :  # shells                          192          :
          :  # electrons                       384          :
          :  max. iterations                   250          :
          :  Hamiltonian                  GFN2-xTB          :
          :  restarted?                      false          :
          :  GBSA solvation                  false          :
          :  PC potential                    false          :
          :  electronic temp.          300.0000000     K    :
          :  accuracy                    1.0000000          :
          :  -> integral cutoff          0.2500000E+02      :
          :  -> integral neglect         0.1000000E-07      :
          :  -> SCF convergence          0.1000000E-05 Eh   :
          :  -> wf. convergence          0.1000000E-03 e    :
          :  Broyden damping             0.4000000          :
          :  net charge                          0          :
          :  unpaired electrons                  0          :
          ...................................................

 iter      E             dE          RMSdq      gap      omega  full diag
   1   -230.7672884 -0.230767E+03  0.465E+00    8.74       0.0  T
   2   -231.0184504 -0.251162E+00  0.245E+00    8.61       1.0  T
   3   -231.0247479 -0.629757E-02  0.822E-01    8.76       1.0  T
   4   -231.0300108 -0.526291E-02  0.149E-01    8.74       1.0  T
   5   -231.0305340 -0.523109E-03  0.699E-02    8.76       1.0  T
   6   -231.0305956 -0.616849E-04  0.209E-02    8.77       1.0  T
   7   -231.0306015 -0.583409E-05  0.770E-03    8.77       1.2  T
   8   -231.0306034 -0.194652E-05  0.225E-03    8.77       4.0  T
   9   -231.0306035 -0.583836E-07  0.910E-04    8.77       9.8  T
  10   -231.0306035 -0.208933E-07  0.270E-04    8.77      33.1  T

   *** convergence criteria satisfied after 10 iterations ***

         #    Occupation            Energy/Eh            Energy/eV
      -------------------------------------------------------------
         1        2.0000           -0.7287109             -19.8292
       ...           ...                  ...                  ...
       186        2.0000           -0.4018889             -10.9360
       187        2.0000           -0.4001197             -10.8878
       188        2.0000           -0.3986888             -10.8489
       189        2.0000           -0.3968813             -10.7997
       190        2.0000           -0.3958075             -10.7705
       191        2.0000           -0.3888870             -10.5822
       192        2.0000           -0.3876371             -10.5481 (HOMO)
       193                         -0.0654759              -1.7817 (LUMO)
       194                         -0.0509274              -1.3858
       195                         -0.0500695              -1.3625
       196                         -0.0428125              -1.1650
       197                         -0.0412527              -1.1225
       ...                                ...                  ...
       324                          0.3169924               8.6258
      -------------------------------------------------------------
                  HL-Gap            0.3221611 Eh            8.7665 eV
             Fermi-level           -0.2265565 Eh           -6.1649 eV

 SCC (total)                   0 d,  0 h,  0 min,  0.358 sec
 SCC setup                      ...        0 min,  0.003 sec (  0.838%)
 Dispersion                     ...        0 min,  0.006 sec (  1.676%)
 classical contributions        ...        0 min,  0.000 sec (  0.000%)
 integral evaluation            ...        0 min,  0.018 sec (  5.028%)
 iterations                     ...        0 min,  0.256 sec ( 71.508%)
 molecular gradient             ...        0 min,  0.073 sec ( 20.391%)
 printout                       ...        0 min,  0.002 sec (  0.559%)

         :::::::::::::::::::::::::::::::::::::::::::::::::::::
         ::                     SUMMARY                     ::
         :::::::::::::::::::::::::::::::::::::::::::::::::::::
         :: total energy            -229.545804335347 Eh    ::
         :: gradient norm              0.230535605552 Eh/a0 ::
         :: HOMO-LUMO gap              8.766450797232 eV    ::
         ::.................................................::
         :: HOMO orbital eigv.       -10.548141241695 eV    ::
         :: LUMO orbital eigv.        -1.781690444463 eV    ::
         ::.................................................::
         :: SCC energy              -231.025099164944 Eh    ::
         :: -> isotropic ES            0.633305446361 Eh    ::
         :: -> anisotropic ES          0.013382725584 Eh    ::
         :: -> anisotropic XC         -0.043841788833 Eh    ::
         :: -> dispersion             -0.148250324508 Eh    ::
         :: repulsion energy           1.479294829597 Eh    ::
         :: add. restraining           0.000000000000 Eh    ::
         :: total charge              -0.000000000000 e     ::
         ::.................................................::
         :: atomisation energy        34.539393663870 Eh    ::
         :::::::::::::::::::::::::::::::::::::::::::::::::::::

           -------------------------------------------------
          |                Property Printout                |
           -------------------------------------------------

    * Orbital Energies and Occupations

         #    Occupation            Energy/Eh            Energy/eV
      -------------------------------------------------------------
         1        2.0000           -0.7287109             -19.8292
       ...           ...                  ...                  ...
       180        2.0000           -0.4161130             -11.3230
       181        2.0000           -0.4133143             -11.2469
       182        2.0000           -0.4121338             -11.2147
       183        2.0000           -0.4108042             -11.1785
       184        2.0000           -0.4087099             -11.1216
       185        2.0000           -0.4049466             -11.0192
       186        2.0000           -0.4018889             -10.9360
       187        2.0000           -0.4001197             -10.8878
       188        2.0000           -0.3986888             -10.8489
       189        2.0000           -0.3968813             -10.7997
       190        2.0000           -0.3958075             -10.7705
       191        2.0000           -0.3888870             -10.5822
       192        2.0000           -0.3876371             -10.5481 (HOMO)
       193                         -0.0654759              -1.7817 (LUMO)
       194                         -0.0509274              -1.3858
       195                         -0.0500695              -1.3625
       196                         -0.0428125              -1.1650
       197                         -0.0412527              -1.1225
       198                         -0.0382175              -1.0400
       199                         -0.0351473              -0.9564
       200                         -0.0309406              -0.8419
       201                         -0.0272889              -0.7426
       202                         -0.0243054              -0.6614
       203                         -0.0201836              -0.5492
       ...                                ...                  ...
       324                          0.3169924               8.6258
      -------------------------------------------------------------
                  HL-Gap            0.3221611 Eh            8.7665 eV
             Fermi-level           -0.2265565 Eh           -6.1649 eV

     #   Z          covCN         q      C6AA      α(0)
     1   8 O        1.650    -0.423    21.295     6.229
     2   6 C        3.671     0.073    19.590     6.344
     3   6 C        3.733     0.102    18.978     6.218
     4   8 O        1.694    -0.323    19.402     5.947
     5   6 C        3.652     0.225    17.358     5.983
     6   8 O        1.700    -0.319    19.332     5.936
     7   6 C        3.766     0.080    19.281     6.258
     8   6 C        3.730     0.098    19.046     6.230
     9   8 O        1.653    -0.437    21.587     6.272
    10   6 C        3.724     0.101    19.022     6.228
    11   8 O        1.652    -0.424    21.317     6.233
    12   6 C        3.644     0.228    17.345     5.987
    13   8 O        1.696    -0.340    19.707     5.994
    14   6 C        3.721     0.081    19.334     6.280
    15   6 C        3.669     0.063    19.755     6.372
    16   8 O        1.649    -0.427    21.378     6.241
    17   8 O        1.699    -0.301    19.009     5.886
    18   6 C        3.751     0.092    19.111     6.234
    19   6 C        3.728     0.112    18.846     6.198
    20   8 O        1.653    -0.425    21.337     6.236
    21   6 C        3.726     0.091    19.178     6.253
    22   8 O        1.651    -0.415    21.152     6.209
    23   6 C        3.660     0.223    17.358     5.978
    24   8 O        1.695    -0.323    19.406     5.948
    25   6 C        3.724     0.071    19.494     6.305
    26   6 C        3.670     0.064    19.746     6.370
    27   8 O        1.651    -0.431    21.458     6.253
    28   8 O        1.703    -0.276    18.571     5.818
    29   6 C        3.769     0.092    19.093     6.227
    30   6 C        3.728     0.101    19.004     6.224
    31   8 O        1.651    -0.399    20.832     6.161
    32   6 C        3.728     0.096    19.086     6.237
    33   8 O        1.652    -0.397    20.784     6.154
    34   6 C        3.634     0.224    17.446     6.011
    35   8 O        1.693    -0.324    19.417     5.949
    36   6 C        3.719     0.070    19.521     6.311
    37   6 C        3.667     0.076    19.559     6.342
    38   8 O        1.651    -0.417    21.183     6.213
    39   8 O        1.703    -0.285    18.731     5.843
    40   6 C        3.743     0.097    19.049     6.227
    41   6 C        3.725     0.115    18.801     6.191
    42   8 O        1.650    -0.423    21.311     6.232
    43   6 C        3.722     0.090    19.198     6.257
    44   8 O        1.653    -0.412    21.091     6.200
    45   6 C        3.627     0.216    17.583     6.041
    46   8 O        1.695    -0.337    19.659     5.986
    47   6 C        3.737     0.078    19.364     6.280
    48   6 C        3.668     0.069    19.664     6.358
    49   8 O        1.650    -0.409    21.031     6.191
    50   8 O        1.698    -0.301    19.018     5.888
    51   6 C        3.743     0.094    19.100     6.235
    52   6 C        3.721     0.100    19.043     6.232
    53   8 O        1.650    -0.439    21.628     6.278
    54   6 C        3.723     0.084    19.287     6.272
    55   8 O        1.651    -0.428    21.407     6.246
    56   6 C        3.639     0.230    17.343     5.990
    57   8 O        1.696    -0.313    19.222     5.919
    58   6 C        3.747     0.076    19.382     6.279
    59   6 C        3.668     0.068    19.689     6.362
    60   8 O        1.651    -0.429    21.425     6.248
    61   8 O        1.697    -0.281    18.660     5.832
    62   6 C        3.729     0.081    19.323     6.275
    63   6 C        3.716     0.100    19.053     6.236
    64   8 O        1.651    -0.435    21.551     6.267
    65   6 C        3.714     0.088    19.246     6.268
    66   8 O        1.643    -0.455    21.949     6.324
    67   1 H        0.799     0.299     0.727     1.339
    68   1 H        0.920     0.043     2.411     2.428
    69   1 H        0.924     0.051     2.313     2.379
    70   1 H        0.923     0.033     2.548     2.496
    71   1 H        0.922     0.041     2.437     2.441
    72   1 H        0.925     0.065     2.140     2.288
    73   1 H        0.923     0.063     2.167     2.302
    74   1 H        0.800     0.303     0.714     1.328
    75   1 H        0.920     0.027     2.627     2.535
    76   1 H        0.800     0.311     0.689     1.304
    77   1 H        0.922     0.054     2.268     2.355
    78   1 H        0.924     0.075     2.030     2.228
    79   1 H        0.922     0.030     2.584     2.514
    80   1 H        0.923     0.065     2.145     2.290
    81   1 H        0.799     0.298     0.729     1.342
    82   1 H        0.921     0.071     2.076     2.253
    83   1 H        0.917     0.061     2.191     2.315
    84   1 H        0.801     0.314     0.680     1.295
    85   1 H        0.922     0.020     2.728     2.583
    86   1 H        0.800     0.291     0.749     1.360
    87   1 H        0.923     0.011     2.880     2.654
    88   1 H        0.925     0.083     1.948     2.183
    89   1 H        0.920     0.039     2.469     2.458
    90   1 H        0.925     0.044     2.395     2.420
    91   1 H        0.800     0.302     0.716     1.330
    92   1 H        0.921     0.005     2.969     2.695
    93   1 H        0.921     0.092     1.858     2.132
    94   1 H        0.799     0.291     0.749     1.360
    95   1 H        0.923    -0.004     3.128     2.766
    96   1 H        0.800     0.301     0.718     1.331
    97   1 H        0.925     0.014     2.824     2.628
    98   1 H        0.923     0.112     1.683     2.029
    99   1 H        0.921     0.018     2.757     2.597
   100   1 H        0.922     0.016     2.798     2.616
   101   1 H        0.801     0.296     0.734     1.346
   102   1 H        0.918     0.025     2.662     2.552
   103   1 H        0.921     0.048     2.348     2.397
   104   1 H        0.799     0.316     0.675     1.291
   105   1 H        0.922     0.019     2.757     2.597
   106   1 H        0.802     0.306     0.702     1.317
   107   1 H        0.925     0.031     2.573     2.509
   108   1 H        0.924     0.105     1.738     2.062
   109   1 H        0.921     0.073     2.053     2.241
   110   1 H        0.919     0.003     3.012     2.714
   111   1 H        0.798     0.290     0.753     1.364
   112   1 H        0.918     0.055     2.260     2.351
   113   1 H        0.917     0.038     2.474     2.460
   114   1 H        0.799     0.301     0.720     1.333
   115   1 H        0.921     0.033     2.545     2.495
   116   1 H        0.801     0.296     0.734     1.346
   117   1 H        0.923     0.025     2.663     2.552
   118   1 H        0.922     0.086     1.915     2.164
   119   1 H        0.923     0.070     2.088     2.259
   120   1 H        0.918     0.018     2.764     2.600
   121   1 H        0.801     0.308     0.697     1.312
   122   1 H        0.923     0.112     1.676     2.025
   123   1 H        0.922     0.036     2.497     2.471
   124   1 H        0.799     0.307     0.701     1.316
   125   1 H        0.923     0.040     2.455     2.451
   126   1 H        0.796     0.325     0.653     1.270

 Mol. C6AA /au·bohr⁶  :     138022.956377
 Mol. C8AA /au·bohr⁸  :    2982343.514040
 Mol. α(0) /au        :        532.594871


Wiberg/Mayer (AO) data.
largest (>0.10) Wiberg bond orders for each atom

 ---------------------------------------------------------------------------
     #   Z sym  total        # sym  WBO       # sym  WBO       # sym  WBO
 ---------------------------------------------------------------------------
     1   8 O    1.966 --     2 C    1.008    67 H    0.899
     2   6 C    3.963 --     1 O    1.008     3 C    0.985    69 H    0.969
                            68 H    0.963
     3   6 C    3.949 --     2 C    0.985     4 O    0.966    62 C    0.959
                            70 H    0.954
     4   8 O    2.076 --     5 C    0.966     3 C    0.966
     5   6 C    3.929 --     6 O    0.981     4 O    0.966    65 C    0.957
                            71 H    0.949
     6   8 O    2.097 --     5 C    0.981     7 C    0.964
     7   6 C    3.941 --     6 O    0.964    14 C    0.961     8 C    0.957
                            72 H    0.956
     8   6 C    3.958 --     9 O    0.997    10 C    0.973     7 C    0.957
                            73 H    0.957
     9   8 O    1.966 --     8 C    0.997    74 H    0.894
    10   6 C    3.967 --    11 O    1.003     8 C    0.973    75 H    0.961
                            12 C    0.954
    11   8 O    1.968 --    10 C    1.003    76 H    0.892
    12   6 C    3.929 --    17 O    0.979    13 O    0.974    10 C    0.954
                            77 H    0.946
    13   8 O    2.078 --    12 C    0.974    14 C    0.957
    14   6 C    3.939 --    15 C    0.979     7 C    0.961    78 H    0.958
                            13 O    0.957
    15   6 C    3.962 --    16 O    1.012    14 C    0.979    80 H    0.967
                            79 H    0.966
    16   8 O    1.963 --    15 C    1.012    81 H    0.892
    17   8 O    2.110 --    12 C    0.979    18 C    0.974
    18   6 C    3.945 --    19 C    0.979    17 O    0.974    25 C    0.952
                            82 H    0.947
    19   6 C    3.964 --    20 O    1.005    18 C    0.979    21 C    0.964
                            83 H    0.954
    20   8 O    1.971 --    19 C    1.005    84 H    0.888
    21   6 C    3.960 --    22 O    1.002    19 C    0.964    85 H    0.959
                            23 C    0.947
    22   8 O    1.979 --    21 C    1.002    86 H    0.900
    23   6 C    3.934 --    28 O    0.978    24 O    0.973    87 H    0.951
                            21 C    0.947
    24   8 O    2.079 --    23 C    0.973    25 C    0.966
    25   6 C    3.936 --    26 C    0.971    24 O    0.966    88 H    0.956
                            18 C    0.952
    26   6 C    3.960 --    27 O    1.011    90 H    0.972    25 C    0.971
                            89 H    0.966
    27   8 O    1.968 --    26 C    1.011    91 H    0.895
    28   8 O    2.126 --    29 C    0.992    23 C    0.978
    29   6 C    3.952 --    28 O    0.992    30 C    0.965    92 H    0.949
                            36 C    0.944
    30   6 C    3.960 --    31 O    1.020    29 C    0.965    32 C    0.959
                            93 H    0.951
    31   8 O    1.996 --    30 C    1.020    94 H    0.893
    32   6 C    3.968 --    33 O    1.020    30 C    0.959    95 H    0.957
                            34 C    0.947
    33   8 O    1.991 --    32 C    1.020    96 H    0.893
    34   6 C    3.937 --    39 O    0.994    35 O    0.960    97 H    0.951
                            32 C    0.947
    35   8 O    2.082 --    36 C    0.972    34 C    0.960
    36   6 C    3.938 --    37 C    0.982    35 O    0.972    98 H    0.948
                            29 C    0.944
    37   6 C    3.968 --    38 O    1.009    36 C    0.982   100 H    0.971
                            99 H    0.963
    38   8 O    1.964 --    37 C    1.009   101 H    0.899
    39   8 O    2.118 --    34 C    0.994    40 C    0.975
    40   6 C    3.948 --    39 O    0.975    41 C    0.966    47 C    0.954
                           102 H    0.951
    41   6 C    3.965 --    42 O    1.008    43 C    0.967    40 C    0.966
                           103 H    0.961
    42   8 O    1.973 --    41 C    1.008   104 H    0.888
    43   6 C    3.965 --    44 O    1.013    41 C    0.967   105 H    0.960
                            45 C    0.942
    44   8 O    1.979 --    43 C    1.013   106 H    0.890
    45   6 C    3.928 --    50 O    0.982    46 O    0.957   107 H    0.954
                            43 C    0.942
    46   8 O    2.070 --    47 C    0.973    45 C    0.957
    47   6 C    3.936 --    48 C    0.975    46 O    0.973    40 C    0.954
                           108 H    0.945
    48   6 C    3.963 --    49 O    1.017    47 C    0.975   110 H    0.967
                           109 H    0.964
    49   8 O    1.982 --    48 C    1.017   111 H    0.898
    50   8 O    2.093 --    45 C    0.982    51 C    0.968
    51   6 C    3.944 --    50 O    0.968    52 C    0.967    58 C    0.966
                           112 H    0.947
    52   6 C    3.956 --    53 O    0.991    51 C    0.967    54 C    0.964
                           113 H    0.961
    53   8 O    1.967 --    52 C    0.991   114 H    0.896
    54   6 C    3.959 --    55 O    0.996    52 C    0.964   115 H    0.957
                            56 C    0.947
    55   8 O    1.968 --    54 C    0.996   116 H    0.896
    56   6 C    3.941 --    61 O    0.990    57 O    0.977    54 C    0.947
                           117 H    0.943
    57   8 O    2.077 --    56 C    0.977    58 C    0.964
    58   6 C    3.938 --    59 C    0.975    51 C    0.966    57 O    0.964
                           118 H    0.955
    59   6 C    3.963 --    60 O    1.016    58 C    0.975   119 H    0.968
                           120 H    0.963
    60   8 O    1.965 --    59 C    1.016   121 H    0.884
    61   8 O    2.117 --    56 C    0.990    62 C    0.980
    62   6 C    3.932 --    61 O    0.980     3 C    0.959    63 C    0.953
                           122 H    0.944
    63   6 C    3.957 --    64 O    1.002    65 C    0.966   123 H    0.961
                            62 C    0.953
    64   8 O    1.969 --    63 C    1.002   124 H    0.892
    65   6 C    3.960 --    66 O    0.996    63 C    0.966   125 H    0.960
                             5 C    0.957
    66   8 O    1.950 --    65 C    0.996   126 H    0.872
    67   1 H    0.911 --     1 O    0.899
    68   1 H    0.998 --     2 C    0.963
    69   1 H    0.997 --     2 C    0.969
    70   1 H    0.999 --     3 C    0.954
    71   1 H    0.998 --     5 C    0.949
    72   1 H    0.996 --     7 C    0.956
    73   1 H    0.996 --     8 C    0.957
    74   1 H    0.908 --     9 O    0.894
    75   1 H    0.999 --    10 C    0.961
    76   1 H    0.903 --    11 O    0.892
    77   1 H    0.997 --    12 C    0.946
    78   1 H    0.994 --    14 C    0.958
    79   1 H    0.999 --    15 C    0.966
    80   1 H    0.996 --    15 C    0.967
    81   1 H    0.911 --    16 O    0.892
    82   1 H    0.995 --    18 C    0.947
    83   1 H    0.996 --    19 C    0.954
    84   1 H    0.901 --    20 O    0.888
    85   1 H    0.999 --    21 C    0.959
    86   1 H    0.915 --    22 O    0.900
    87   1 H    1.000 --    23 C    0.951
    88   1 H    0.993 --    25 C    0.956
    89   1 H    0.999 --    26 C    0.966
    90   1 H    0.998 --    26 C    0.972
    91   1 H    0.909 --    27 O    0.895
    92   1 H    1.000 --    29 C    0.949
    93   1 H    0.991 --    30 C    0.951
    94   1 H    0.915 --    31 O    0.893
    95   1 H    1.000 --    32 C    0.957
    96   1 H    0.909 --    33 O    0.893
    97   1 H    1.000 --    34 C    0.951
    98   1 H    0.988 --    36 C    0.948
    99   1 H    0.999 --    37 C    0.963
   100   1 H    1.000 --    37 C    0.971
   101   1 H    0.912 --    38 O    0.899
   102   1 H    0.999 --    40 C    0.951
   103   1 H    0.998 --    41 C    0.961
   104   1 H    0.900 --    42 O    0.888
   105   1 H    0.999 --    43 C    0.960
   106   1 H    0.906 --    44 O    0.890
   107   1 H    0.999 --    45 C    0.954
   108   1 H    0.989 --    47 C    0.945
   109   1 H    0.994 --    48 C    0.964
   110   1 H    1.000 --    48 C    0.967
   111   1 H    0.916 --    49 O    0.898
   112   1 H    0.997 --    51 C    0.947
   113   1 H    0.998 --    52 C    0.961
   114   1 H    0.909 --    53 O    0.896
   115   1 H    0.999 --    54 C    0.957
   116   1 H    0.912 --    55 O    0.896
   117   1 H    0.999 --    56 C    0.943
   118   1 H    0.992 --    58 C    0.955
   119   1 H    0.995 --    59 C    0.968
   120   1 H    1.000 --    59 C    0.963
   121   1 H    0.905 --    60 O    0.884
   122   1 H    0.987 --    62 C    0.944
   123   1 H    0.998 --    63 C    0.961
   124   1 H    0.905 --    64 O    0.892
   125   1 H    0.998 --    65 C    0.960
   126   1 H    0.894 --    66 O    0.872
 ---------------------------------------------------------------------------

Topologies differ in total number of bonds
Writing topology from bond orders to xtbtopo.mol

molecular dipole:
                 x           y           z       tot (Debye)
 q only:       -1.157       2.635       0.982
   full:       -2.061       4.199       1.732      12.677
molecular quadrupole (traceless):
                xx          xy          yy          xz          yz          zz
 q only:       -8.657     -12.311      12.645     -24.785      -2.689      -3.987
  q+dip:      -13.806     -15.924      22.311     -41.592      -1.011      -8.505
   full:      -13.784     -17.497      22.216     -40.563      -0.725      -8.432


           -------------------------------------------------
          | TOTAL ENERGY             -229.545804335347 Eh   |
          | GRADIENT NORM               0.230535605552 Eh/α |
          | HOMO-LUMO GAP               8.766450797232 eV   |
           -------------------------------------------------
########################################################################
[WARNING] Runtime exception occurred
-2- restart_readRestart: Dimension missmatch in restart file.
-1- restart_readRestart: Number of electron missmatch in restart file.
########################################################################

------------------------------------------------------------------------
 unit  open   action     filename
  129 false : read       dft_tmp\129.xyz
  129 false : read       dft_tmp\129.xyz
  129 false : read       dft_tmp\129.xyz
  129 false : read       C:\Users\nkapa\Downloads\xtb-6.7.1pre-windows-x86_64\xtb-6.7.1\share\xtb\param_gfn2-xtb.txt
  129 false : read       xtbrestart
  129 false : replaced   charges
  129 false : replaced   wbo
  129 false : replaced   xtbtopo.mol
  129 false : replaced   xtbrestart

------------------------------------------------------------------------
 * finished run on 2025/06/23 at 11:31:47.940     
------------------------------------------------------------------------
 total:
 * wall-time:     0 d,  0 h,  0 min,  0.441 sec
 *  cpu-time:     0 d,  0 h,  0 min,  3.328 sec
 * ratio c/w:     7.547 speedup
 SCF:
 * wall-time:     0 d,  0 h,  0 min,  0.359 sec
 *  cpu-time:     0 d,  0 h,  0 min,  2.844 sec
 * ratio c/w:     7.921 speedup

normal termination of xtb
