      -----------------------------------------------------------      
     |                   =====================                   |     
     |                           x T B                           |     
     |                   =====================                   |     
     |                         S. Grimme                         |     
     |          Mulliken Center for Theoretical Chemistry        |     
     |                    University of Bonn                     |     
      -----------------------------------------------------------      

   * xtb version 6.7.1pre (5071a88) compiled by 'Marcel@Raven' on 2024-07-23

   xtb is free software: you can redistribute it and/or modify it under
   the terms of the GNU Lesser General Public License as published by
   the Free Software Foundation, either version 3 of the License, or
   (at your option) any later version.
   
   xtb is distributed in the hope that it will be useful,
   but WITHOUT ANY WARRANTY; without even the implied warranty of
   MERCHANTABILITY or FITNESS FOR A PARTICULAR PURPOSE.  See the
   GNU Lesser General Public License for more details.
   
   Cite this work as:
   * C. Bannwarth, E. Caldeweyher, S. Ehlert, A. Hansen, P. Pracht,
     J. Seibert, S. Spicher, S. Grimme, WIREs Comput. Mol. Sci., 2020, 11,
     e01493. DOI: 10.1002/wcms.1493
   
   for GFN2-xTB:
   * C. Bannwarth, S. Ehlert and S. Grimme., J. Chem. Theory Comput., 2019,
     15, 1652-1671. DOI: 10.1021/acs.jctc.8b01176
   for GFN1-xTB:
   * S. Grimme, C. Bannwarth, P. Shushkov, J. Chem. Theory Comput., 2017,
     13, 1989-2009. DOI: 10.1021/acs.jctc.7b00118
   for GFN0-xTB:
   * P. Pracht, E. Caldeweyher, S. Ehlert, S. Grimme, ChemRxiv, 2019, preprint.
     DOI: 10.26434/chemrxiv.8326202.v1
   for GFN-FF:
   * S. Spicher and S. Grimme, Angew. Chem. Int. Ed., 2020, 59, 15665-15673.
     DOI: 10.1002/anie.202004239
   
   for ALPB and GBSA implicit solvation:
   * S. Ehlert, M. Stahn, S. Spicher, S. Grimme, J. Chem. Theory Comput.,
     2021, 17, 4250-4261. DOI: 10.1021/acs.jctc.1c00471
   
   for ddCOSMO and CPCM-X implicit solvation:
   * M. Stahn, S. Ehlert, S. Grimme, J. Phys. Chem. A,
     2023, XX, XXXX-XXXX. DOI: 10.1021/acs.jpca.3c04382
   
   for DFT-D4:
   * E. Caldeweyher, C. Bannwarth and S. Grimme, J. Chem. Phys., 2017,
     147, 034112. DOI: 10.1063/1.4993215
   * E. Caldeweyher, S. Ehlert, A. Hansen, H. Neugebauer, S. Spicher,
     C. Bannwarth and S. Grimme, J. Chem. Phys., 2019, 150, 154122.
     DOI: 10.1063/1.5090222
   * E. Caldeweyher, J.-M. Mewes, S. Ehlert and S. Grimme, Phys. Chem. Chem. Phys.
     2020, 22, 8499-8512. DOI: 10.1039/D0CP00502A
   
   for sTDA-xTB:
   * S. Grimme and C. Bannwarth, J. Chem. Phys., 2016, 145, 054103.
     DOI: 10.1063/1.4959605
   
   in the mass-spec context:
   * V. Asgeirsson, C. Bauer and S. Grimme, Chem. Sci., 2017, 8, 4879.
     DOI: 10.1039/c7sc00601b
   * J. Koopman and S. Grimme, ACS Omega 2019, 4, 12, 15120-15133.
     DOI: 10.1021/acsomega.9b02011
   
   for metadynamics refer to:
   * S. Grimme, J. Chem. Theory Comput., 2019, 155, 2847-2862
     DOI: 10.1021/acs.jctc.9b00143
   
   for SPH calculations refer to:
   * S. Spicher and S. Grimme, J. Chem. Theory Comput., 2021, 17, 1701-1714
     DOI: 10.1021/acs.jctc.0c01306
   
   for ONIOM refer to:
   * C. Plett, A. Katbashev, S. Ehlert, S. Grimme, M. Bursch,
     Phys. Chem. Chem. Phys., 2023, 25, 17860-17868. DOI: 10.1039/D3CP02178E
   
   for DIPRO refer to:
   * J. Kohn, N. Gildemeister, S. Grimme, D. Fazzi, A. Hansen,
     J. Chem. Phys., 2023, just accepted.
   
   for PTB refer to:
   * S. Grimme, M. Mueller, A. Hansen, J. Chem. Phys., 2023, 158, 124111.
     DOI: 10.1063/5.0137838
   
   with help from (in alphabetical order)
   P. Atkinson, C. Bannwarth, F. Bohle, G. Brandenburg, E. Caldeweyher
   M. Checinski, S. Dohm, S. Ehlert, S. Ehrlich, I. Gerasimov, C. Hölzer
   A. Katbashev, J. Kohn, J. Koopman, C. Lavigne, S. Lehtola, F. März, M. Müller,
   F. Musil, H. Neugebauer, J. Pisarek, C. Plett, P. Pracht, F. Pultar,
   J. Seibert, P. Shushkov, S. Spicher, M. Stahn, M. Steiner, T. Strunk,
   J. Stückrath, T. Rose, and J. Unsleber
   
 * started run on 2025/06/23 at 11:31:48.526     
$$$$$$$$$$$$$$$$$$$$$$$$$$$$$$$$$$$$$$$$$$$$$$$$$$$$$$$$$$$$$$$$$$$$$$$$
 CONSTRAINTS & SCANS: DEBUG SECTION
$$$$$$$$$$$$$$$$$$$$$$$$$$$$$$$$$$$$$$$$$$$$$$$$$$$$$$$$$$$$$$$$$$$$$$$$
   ID    Z sym.   atoms
    1    6 C      1-3, 5, 7, 8
    2    7 N      4
    3    8 O      6
    4    1 H      9-19
$$$$$$$$$$$$$$$$$$$$$$$$$$$$$$$$$$$$$$$$$$$$$$$$$$$$$$$$$$$$$$$$$$$$$$$$

           -------------------------------------------------
          |                Calculation Setup                |
           -------------------------------------------------

          program call               : C:\Users\nkapa\Downloads\xtb-6.7.1pre-windows-x86_64\xtb-6.7.1\bin\xtb.EXE dft_tmp\134.xyz --gfn2 --parallel 8 --verbose
          coordinate file            : dft_tmp\134.xyz
          xtbhome directory          : C:\Users\nkapa\AppData\Roaming\SPB_Data
          path for xtb               : C:\Users\nkapa\Downloads\xtb-6.7.1pre-windows-x86_64\xtb-6.7.1\share\xtb
          xcontrol input file        : dft_tmp\134.xyz
          omp threads                :                     8


           -------------------------------------------------
          |                 G F N 2 - x T B                 |
           -------------------------------------------------

        Reference                      10.1021/acs.jctc.8b01176
      * Hamiltonian:
        H0-scaling (s, p, d)           1.850000    2.230000    2.230000
        zeta-weighting                 0.500000
      * Dispersion:
        s8                             2.700000
        a1                             0.520000
        a2                             5.000000
        s9                             5.000000
      * Repulsion:
        kExp                           1.500000    1.000000
        rExp                           1.000000
      * Coulomb:
        alpha                          2.000000
        third order                    shell-resolved
        anisotropic                    true
        a3                             3.000000
        a5                             4.000000
        cn-shift                       1.200000
        cn-exp                         4.000000
        max-rad                        5.000000


          ...................................................
          :                      SETUP                      :
          :.................................................:
          :  # basis functions                  43          :
          :  # atomic orbitals                  43          :
          :  # shells                           27          :
          :  # electrons                        46          :
          :  max. iterations                   250          :
          :  Hamiltonian                  GFN2-xTB          :
          :  restarted?                      false          :
          :  GBSA solvation                  false          :
          :  PC potential                    false          :
          :  electronic temp.          300.0000000     K    :
          :  accuracy                    1.0000000          :
          :  -> integral cutoff          0.2500000E+02      :
          :  -> integral neglect         0.1000000E-07      :
          :  -> SCF convergence          0.1000000E-05 Eh   :
          :  -> wf. convergence          0.1000000E-03 e    :
          :  Broyden damping             0.4000000          :
          :  net charge                          0          :
          :  unpaired electrons                  0          :
          ...................................................

 iter      E             dE          RMSdq      gap      omega  full diag
   1    -25.6482360 -0.256482E+02  0.399E+00    3.15       0.0  T
   2    -25.7145938 -0.663578E-01  0.217E+00    2.96       1.0  T
   3    -25.7189563 -0.436257E-02  0.119E+00    3.23       1.0  T
   4    -25.7206747 -0.171831E-02  0.200E-01    3.18       1.0  T
   5    -25.7209819 -0.307223E-03  0.106E-01    3.26       1.0  T
   6    -25.7210502 -0.682760E-04  0.483E-02    3.24       1.0  T
   7    -25.7210476  0.252068E-05  0.281E-02    3.24       1.0  T
   8    -25.7210574 -0.975276E-05  0.832E-03    3.24       2.8  T
   9    -25.7210577 -0.357060E-06  0.239E-03    3.24       9.6  T
  10    -25.7210578 -0.140062E-07  0.121E-03    3.24      18.9  T
  11    -25.7210578 -0.471070E-08  0.350E-04    3.24      65.6  T
  12    -25.7210578 -0.431449E-09  0.111E-04    3.24     207.5  T

   *** convergence criteria satisfied after 12 iterations ***

         #    Occupation            Energy/Eh            Energy/eV
      -------------------------------------------------------------
         1        2.0000           -0.6743517             -18.3500
       ...           ...                  ...                  ...
        17        2.0000           -0.4634529             -12.6112
        18        2.0000           -0.4513106             -12.2808
        19        2.0000           -0.4502681             -12.2524
        20        2.0000           -0.4390993             -11.9485
        21        2.0000           -0.4240061             -11.5378
        22        2.0000           -0.3897458             -10.6055
        23        2.0000           -0.3868322             -10.5262 (HOMO)
        24                         -0.2677142              -7.2849 (LUMO)
        25                         -0.1592903              -4.3345
        26                         -0.0447919              -1.2188
        27                          0.0547417               1.4896
        28                          0.0911807               2.4812
       ...                                ...                  ...
        43                          0.6073312              16.5263
      -------------------------------------------------------------
                  HL-Gap            0.1191180 Eh            3.2414 eV
             Fermi-level           -0.3272732 Eh           -8.9056 eV

 SCC (total)                   0 d,  0 h,  0 min,  0.015 sec
 SCC setup                      ...        0 min,  0.001 sec (  6.666%)
 Dispersion                     ...        0 min,  0.000 sec (  0.000%)
 classical contributions        ...        0 min,  0.000 sec (  0.000%)
 integral evaluation            ...        0 min,  0.001 sec (  6.668%)
 iterations                     ...        0 min,  0.011 sec ( 73.332%)
 molecular gradient             ...        0 min,  0.002 sec ( 13.334%)
 printout                       ...        0 min,  0.000 sec (  0.000%)

         :::::::::::::::::::::::::::::::::::::::::::::::::::::
         ::                     SUMMARY                     ::
         :::::::::::::::::::::::::::::::::::::::::::::::::::::
         :: total energy             -25.412267784579 Eh    ::
         :: gradient norm              0.105804749347 Eh/a0 ::
         :: HOMO-LUMO gap              3.241364764738 eV    ::
         ::.................................................::
         :: HOMO orbital eigv.       -10.526240060063 eV    ::
         :: LUMO orbital eigv.        -7.284875295324 eV    ::
         ::.................................................::
         :: SCC energy               -25.721053218595 Eh    ::
         :: -> isotropic ES            0.042005269436 Eh    ::
         :: -> anisotropic ES          0.005806184173 Eh    ::
         :: -> anisotropic XC          0.014542100646 Eh    ::
         :: -> dispersion             -0.011851763322 Eh    ::
         :: repulsion energy           0.308785434016 Eh    ::
         :: add. restraining           0.000000000000 Eh    ::
         :: total charge               0.000000000000 e     ::
         ::.................................................::
         :: atomisation energy         5.050211370255 Eh    ::
         :::::::::::::::::::::::::::::::::::::::::::::::::::::

           -------------------------------------------------
          |                Property Printout                |
           -------------------------------------------------

    * Orbital Energies and Occupations

         #    Occupation            Energy/Eh            Energy/eV
      -------------------------------------------------------------
         1        2.0000           -0.6743517             -18.3500
       ...           ...                  ...                  ...
        11        2.0000           -0.5157919             -14.0354
        12        2.0000           -0.5047893             -13.7360
        13        2.0000           -0.4946333             -13.4597
        14        2.0000           -0.4875779             -13.2677
        15        2.0000           -0.4796050             -13.0507
        16        2.0000           -0.4718747             -12.8404
        17        2.0000           -0.4634529             -12.6112
        18        2.0000           -0.4513106             -12.2808
        19        2.0000           -0.4502681             -12.2524
        20        2.0000           -0.4390993             -11.9485
        21        2.0000           -0.4240061             -11.5378
        22        2.0000           -0.3897458             -10.6055
        23        2.0000           -0.3868322             -10.5262 (HOMO)
        24                         -0.2677142              -7.2849 (LUMO)
        25                         -0.1592903              -4.3345
        26                         -0.0447919              -1.2188
        27                          0.0547417               1.4896
        28                          0.0911807               2.4812
        29                          0.1080383               2.9399
        30                          0.1190938               3.2407
        31                          0.1270164               3.4563
        32                          0.1313191               3.5734
        33                          0.1367372               3.7208
        34                          0.1580204               4.3000
       ...                                ...                  ...
        43                          0.6073312              16.5263
      -------------------------------------------------------------
                  HL-Gap            0.1191180 Eh            3.2414 eV
             Fermi-level           -0.3272732 Eh           -8.9056 eV

     #   Z          covCN         q      C6AA      α(0)
     1   6 C        3.744    -0.108    22.635     6.787
     2   6 C        3.778     0.061    19.587     6.305
     3   6 C        3.744    -0.109    22.664     6.791
     4   7 N        2.678    -0.192    25.156     7.449
     5   6 C        2.751     0.256    22.686     7.799
     6   8 O        0.857    -0.438    22.456     6.353
     7   6 C        2.886    -0.048    29.195     8.858
     8   6 C        2.838    -0.059    29.465     8.896
     9   1 H        0.921     0.040     2.446     2.446
    10   1 H        0.922     0.057     2.229     2.335
    11   1 H        0.921     0.036     2.506     2.476
    12   1 H        0.921     0.057     2.239     2.340
    13   1 H        0.921     0.047     2.356     2.400
    14   1 H        0.921     0.039     2.464     2.455
    15   1 H        0.921     0.039     2.467     2.456
    16   1 H        0.857     0.154     1.376     1.837
    17   1 H        0.925     0.037     2.485     2.465
    18   1 H        0.925     0.078     1.996     2.209
    19   1 H        0.925     0.053     2.283     2.363

 Mol. C6AA /au·bohr⁶  :       3097.601225
 Mol. C8AA /au·bohr⁸  :      67844.107145
 Mol. α(0) /au        :         85.022573


Wiberg/Mayer (AO) data.
largest (>0.10) Wiberg bond orders for each atom

 ---------------------------------------------------------------------------
     #   Z sym  total        # sym  WBO       # sym  WBO       # sym  WBO
 ---------------------------------------------------------------------------
     1   6 C    3.992 --     2 C    0.998    11 H    0.986     9 H    0.984
                            10 H    0.984
     2   6 C    3.968 --     3 C    1.008     1 C    0.998     4 N    0.982
                            12 H    0.957
     3   6 C    3.995 --     2 C    1.008    15 H    0.986    14 H    0.985
                            13 H    0.984
     4   7 N    3.409 --     5 C    1.192     2 C    0.982    16 H    0.946
                             6 O    0.197
     5   6 C    3.950 --     6 O    1.659     4 N    1.192     7 C    1.043
     6   8 O    1.990 --     5 C    1.659     4 N    0.197
     7   6 C    3.990 --     8 C    1.921     5 C    1.043    17 H    0.966
     8   6 C    3.981 --     7 C    1.921    19 H    0.977    18 H    0.971
     9   1 H    0.998 --     1 C    0.984
    10   1 H    0.997 --     1 C    0.984
    11   1 H    0.999 --     1 C    0.986
    12   1 H    0.997 --     2 C    0.957
    13   1 H    0.997 --     3 C    0.984
    14   1 H    0.998 --     3 C    0.985
    15   1 H    0.998 --     3 C    0.986
    16   1 H    0.976 --     4 N    0.946
    17   1 H    0.999 --     7 C    0.966
    18   1 H    0.994 --     8 C    0.971
    19   1 H    0.997 --     8 C    0.977
 ---------------------------------------------------------------------------

Topologies differ in total number of bonds
Writing topology from bond orders to xtbtopo.mol

molecular dipole:
                 x           y           z       tot (Debye)
 q only:       -0.074      -0.646       1.053
   full:        0.029      -0.839       1.331       4.001
molecular quadrupole (traceless):
                xx          xy          yy          xz          yz          zz
 q only:        6.856       0.554      -1.823       1.571       1.324      -5.033
  q+dip:        7.877       0.593      -3.307       2.687       0.668      -4.570
   full:        7.217       0.154      -2.155       2.498       1.748      -5.063


           -------------------------------------------------
          | TOTAL ENERGY              -25.412267784579 Eh   |
          | GRADIENT NORM               0.105804749347 Eh/α |
          | HOMO-LUMO GAP               3.241364764738 eV   |
           -------------------------------------------------
########################################################################
[WARNING] Runtime exception occurred
-2- restart_readRestart: Dimension missmatch in restart file.
-1- restart_readRestart: Number of electron missmatch in restart file.
########################################################################

------------------------------------------------------------------------
 unit  open   action     filename
  129 false : read       dft_tmp\134.xyz
  129 false : read       dft_tmp\134.xyz
  129 false : read       dft_tmp\134.xyz
  129 false : read       C:\Users\nkapa\Downloads\xtb-6.7.1pre-windows-x86_64\xtb-6.7.1\share\xtb\param_gfn2-xtb.txt
  129 false : read       xtbrestart
  129 false : replaced   charges
  129 false : replaced   wbo
  129 false : replaced   xtbtopo.mol
  129 false : replaced   xtbrestart

------------------------------------------------------------------------
 * finished run on 2025/06/23 at 11:31:48.579     
------------------------------------------------------------------------
 total:
 * wall-time:     0 d,  0 h,  0 min,  0.051 sec
 *  cpu-time:     0 d,  0 h,  0 min,  0.266 sec
 * ratio c/w:     5.208 speedup
 SCF:
 * wall-time:     0 d,  0 h,  0 min,  0.016 sec
 *  cpu-time:     0 d,  0 h,  0 min,  0.125 sec
 * ratio c/w:     7.812 speedup

normal termination of xtb
