26

C 0.288890 2.414914 0.234797
N 0.112835 0.954417 0.083250
C -1.154006 0.396968 0.105947
C -2.336333 1.176966 0.046909
C -3.594996 0.572648 0.116330
C -3.706150 -0.812160 0.230446
C -2.559020 -1.603788 0.251478
C -1.293543 -1.011657 0.172993
N -0.195005 -1.799204 0.139513
C 1.045015 -1.276461 0.008259
C 2.145375 -2.136485 -0.079915
C 3.425652 -1.619721 -0.271937
C 3.610719 -0.243283 -0.391262
C 2.520900 0.626964 -0.295254
C 1.214507 0.128772 -0.060899
H 0.274385 2.906100 -0.760744
H -0.487516 2.855180 0.892442
H 1.227154 2.661016 0.771668
H -2.312802 2.248288 -0.087430
H -4.488878 1.181726 0.072936
H -4.683586 -1.274056 0.283682
H -2.654981 -2.680907 0.314247
H 2.007002 -3.208802 -0.014167
H 4.273521 -2.288302 -0.347275
H 4.602883 0.152232 -0.567507
H 2.717975 1.678635 -0.441825
