      -----------------------------------------------------------      
     |                   =====================                   |     
     |                           x T B                           |     
     |                   =====================                   |     
     |                         S. Grimme                         |     
     |          Mulliken Center for Theoretical Chemistry        |     
     |                    University of Bonn                     |     
      -----------------------------------------------------------      

   * xtb version 6.7.1pre (5071a88) compiled by 'Marcel@Raven' on 2024-07-23

   xtb is free software: you can redistribute it and/or modify it under
   the terms of the GNU Lesser General Public License as published by
   the Free Software Foundation, either version 3 of the License, or
   (at your option) any later version.
   
   xtb is distributed in the hope that it will be useful,
   but WITHOUT ANY WARRANTY; without even the implied warranty of
   MERCHANTABILITY or FITNESS FOR A PARTICULAR PURPOSE.  See the
   GNU Lesser General Public License for more details.
   
   Cite this work as:
   * C. Bannwarth, E. Caldeweyher, S. Ehlert, A. Hansen, P. Pracht,
     J. Seibert, S. Spicher, S. Grimme, WIREs Comput. Mol. Sci., 2020, 11,
     e01493. DOI: 10.1002/wcms.1493
   
   for GFN2-xTB:
   * C. Bannwarth, S. Ehlert and S. Grimme., J. Chem. Theory Comput., 2019,
     15, 1652-1671. DOI: 10.1021/acs.jctc.8b01176
   for GFN1-xTB:
   * S. Grimme, C. Bannwarth, P. Shushkov, J. Chem. Theory Comput., 2017,
     13, 1989-2009. DOI: 10.1021/acs.jctc.7b00118
   for GFN0-xTB:
   * P. Pracht, E. Caldeweyher, S. Ehlert, S. Grimme, ChemRxiv, 2019, preprint.
     DOI: 10.26434/chemrxiv.8326202.v1
   for GFN-FF:
   * S. Spicher and S. Grimme, Angew. Chem. Int. Ed., 2020, 59, 15665-15673.
     DOI: 10.1002/anie.202004239
   
   for ALPB and GBSA implicit solvation:
   * S. Ehlert, M. Stahn, S. Spicher, S. Grimme, J. Chem. Theory Comput.,
     2021, 17, 4250-4261. DOI: 10.1021/acs.jctc.1c00471
   
   for ddCOSMO and CPCM-X implicit solvation:
   * M. Stahn, S. Ehlert, S. Grimme, J. Phys. Chem. A,
     2023, XX, XXXX-XXXX. DOI: 10.1021/acs.jpca.3c04382
   
   for DFT-D4:
   * E. Caldeweyher, C. Bannwarth and S. Grimme, J. Chem. Phys., 2017,
     147, 034112. DOI: 10.1063/1.4993215
   * E. Caldeweyher, S. Ehlert, A. Hansen, H. Neugebauer, S. Spicher,
     C. Bannwarth and S. Grimme, J. Chem. Phys., 2019, 150, 154122.
     DOI: 10.1063/1.5090222
   * E. Caldeweyher, J.-M. Mewes, S. Ehlert and S. Grimme, Phys. Chem. Chem. Phys.
     2020, 22, 8499-8512. DOI: 10.1039/D0CP00502A
   
   for sTDA-xTB:
   * S. Grimme and C. Bannwarth, J. Chem. Phys., 2016, 145, 054103.
     DOI: 10.1063/1.4959605
   
   in the mass-spec context:
   * V. Asgeirsson, C. Bauer and S. Grimme, Chem. Sci., 2017, 8, 4879.
     DOI: 10.1039/c7sc00601b
   * J. Koopman and S. Grimme, ACS Omega 2019, 4, 12, 15120-15133.
     DOI: 10.1021/acsomega.9b02011
   
   for metadynamics refer to:
   * S. Grimme, J. Chem. Theory Comput., 2019, 155, 2847-2862
     DOI: 10.1021/acs.jctc.9b00143
   
   for SPH calculations refer to:
   * S. Spicher and S. Grimme, J. Chem. Theory Comput., 2021, 17, 1701-1714
     DOI: 10.1021/acs.jctc.0c01306
   
   for ONIOM refer to:
   * C. Plett, A. Katbashev, S. Ehlert, S. Grimme, M. Bursch,
     Phys. Chem. Chem. Phys., 2023, 25, 17860-17868. DOI: 10.1039/D3CP02178E
   
   for DIPRO refer to:
   * J. Kohn, N. Gildemeister, S. Grimme, D. Fazzi, A. Hansen,
     J. Chem. Phys., 2023, just accepted.
   
   for PTB refer to:
   * S. Grimme, M. Mueller, A. Hansen, J. Chem. Phys., 2023, 158, 124111.
     DOI: 10.1063/5.0137838
   
   with help from (in alphabetical order)
   P. Atkinson, C. Bannwarth, F. Bohle, G. Brandenburg, E. Caldeweyher
   M. Checinski, S. Dohm, S. Ehlert, S. Ehrlich, I. Gerasimov, C. Hölzer
   A. Katbashev, J. Kohn, J. Koopman, C. Lavigne, S. Lehtola, F. März, M. Müller,
   F. Musil, H. Neugebauer, J. Pisarek, C. Plett, P. Pracht, F. Pultar,
   J. Seibert, P. Shushkov, S. Spicher, M. Stahn, M. Steiner, T. Strunk,
   J. Stückrath, T. Rose, and J. Unsleber
   
 * started run on 2025/06/23 at 11:31:49.940     
$$$$$$$$$$$$$$$$$$$$$$$$$$$$$$$$$$$$$$$$$$$$$$$$$$$$$$$$$$$$$$$$$$$$$$$$
 CONSTRAINTS & SCANS: DEBUG SECTION
$$$$$$$$$$$$$$$$$$$$$$$$$$$$$$$$$$$$$$$$$$$$$$$$$$$$$$$$$$$$$$$$$$$$$$$$
   ID    Z sym.   atoms
    1    6 C      1, 3-8, 10-15
    2    7 N      2, 9
    3    1 H      16-26
$$$$$$$$$$$$$$$$$$$$$$$$$$$$$$$$$$$$$$$$$$$$$$$$$$$$$$$$$$$$$$$$$$$$$$$$

           -------------------------------------------------
          |                Calculation Setup                |
           -------------------------------------------------

          program call               : C:\Users\nkapa\Downloads\xtb-6.7.1pre-windows-x86_64\xtb-6.7.1\bin\xtb.EXE dft_tmp\135.xyz --gfn2 --parallel 8 --verbose --chrg 1
          coordinate file            : dft_tmp\135.xyz
          xtbhome directory          : C:\Users\nkapa\AppData\Roaming\SPB_Data
          path for xtb               : C:\Users\nkapa\Downloads\xtb-6.7.1pre-windows-x86_64\xtb-6.7.1\share\xtb
          xcontrol input file        : dft_tmp\135.xyz
          omp threads                :                     8


           -------------------------------------------------
          |                 G F N 2 - x T B                 |
           -------------------------------------------------

        Reference                      10.1021/acs.jctc.8b01176
      * Hamiltonian:
        H0-scaling (s, p, d)           1.850000    2.230000    2.230000
        zeta-weighting                 0.500000
      * Dispersion:
        s8                             2.700000
        a1                             0.520000
        a2                             5.000000
        s9                             5.000000
      * Repulsion:
        kExp                           1.500000    1.000000
        rExp                           1.000000
      * Coulomb:
        alpha                          2.000000
        third order                    shell-resolved
        anisotropic                    true
        a3                             3.000000
        a5                             4.000000
        cn-shift                       1.200000
        cn-exp                         4.000000
        max-rad                        5.000000


          ...................................................
          :                      SETUP                      :
          :.................................................:
          :  # basis functions                  71          :
          :  # atomic orbitals                  71          :
          :  # shells                           41          :
          :  # electrons                        72          :
          :  max. iterations                   250          :
          :  Hamiltonian                  GFN2-xTB          :
          :  restarted?                      false          :
          :  GBSA solvation                  false          :
          :  PC potential                    false          :
          :  electronic temp.          300.0000000     K    :
          :  accuracy                    1.0000000          :
          :  -> integral cutoff          0.2500000E+02      :
          :  -> integral neglect         0.1000000E-07      :
          :  -> SCF convergence          0.1000000E-05 Eh   :
          :  -> wf. convergence          0.1000000E-03 e    :
          :  Broyden damping             0.4000000          :
          :  net charge                          1          :
          :  unpaired electrons                  0          :
          ...................................................

 iter      E             dE          RMSdq      gap      omega  full diag
   1    -39.4222941 -0.394223E+02  0.499E+00    1.65       0.0  T
   2    -39.4967562 -0.744621E-01  0.338E+00    1.28       1.0  T
   3    -39.4706353  0.261209E-01  0.192E+00    1.49       1.0  T
   4    -39.4998942 -0.292589E-01  0.105E+00    1.02       1.0  T
   5    -39.5243339 -0.244396E-01  0.152E-01    1.10       1.0  T
   6    -39.5245361 -0.202228E-03  0.757E-02    1.13       1.0  T
   7    -39.5246177 -0.815409E-04  0.335E-02    1.13       1.0  T
   8    -39.5246208 -0.313172E-05  0.173E-02    1.12       1.1  T
   9    -39.5246267 -0.595072E-05  0.308E-03    1.13       6.4  T
  10    -39.5246268 -0.848109E-07  0.107E-03    1.13      18.3  T
  11    -39.5246268 -0.115104E-07  0.484E-04    1.13      40.5  T
  12    -39.5246268 -0.129808E-08  0.152E-04    1.13     129.1  T

   *** convergence criteria satisfied after 12 iterations ***

         #    Occupation            Energy/Eh            Energy/eV
      -------------------------------------------------------------
         1        2.0000           -0.8535217             -23.2255
       ...           ...                  ...                  ...
        30        2.0000           -0.5895657             -16.0429
        31        2.0000           -0.5841917             -15.8967
        32        2.0000           -0.5821005             -15.8398
        33        2.0000           -0.5726859             -15.5836
        34        2.0000           -0.5675585             -15.4441
        35        2.0000           -0.5440223             -14.8036
        36        2.0000           -0.5295859             -14.4108 (HOMO)
        37                         -0.4881485             -13.2832 (LUMO)
        38                         -0.4010017             -10.9118
        39                         -0.3893015             -10.5934
        40                         -0.3734136             -10.1611
        41                         -0.3487019              -9.4887
       ...                                ...                  ...
        71                          0.4989282              13.5765
      -------------------------------------------------------------
                  HL-Gap            0.0414374 Eh            1.1276 eV
             Fermi-level           -0.5088672 Eh          -13.8470 eV

 SCC (total)                   0 d,  0 h,  0 min,  0.025 sec
 SCC setup                      ...        0 min,  0.001 sec (  4.001%)
 Dispersion                     ...        0 min,  0.000 sec (  0.000%)
 classical contributions        ...        0 min,  0.000 sec (  0.000%)
 integral evaluation            ...        0 min,  0.002 sec (  7.999%)
 iterations                     ...        0 min,  0.019 sec ( 76.000%)
 molecular gradient             ...        0 min,  0.003 sec ( 12.000%)
 printout                       ...        0 min,  0.000 sec (  0.000%)

         :::::::::::::::::::::::::::::::::::::::::::::::::::::
         ::                     SUMMARY                     ::
         :::::::::::::::::::::::::::::::::::::::::::::::::::::
         :: total energy             -38.874549318966 Eh    ::
         :: gradient norm              0.108039216298 Eh/a0 ::
         :: HOMO-LUMO gap              1.127568935432 eV    ::
         ::.................................................::
         :: HOMO orbital eigv.       -14.410765053191 eV    ::
         :: LUMO orbital eigv.       -13.283196117759 eV    ::
         ::.................................................::
         :: SCC energy               -39.524601206172 Eh    ::
         :: -> isotropic ES            0.079099862299 Eh    ::
         :: -> anisotropic ES         -0.013534561363 Eh    ::
         :: -> anisotropic XC          0.033706165444 Eh    ::
         :: -> dispersion             -0.026213407436 Eh    ::
         :: repulsion energy           0.650051887206 Eh    ::
         :: add. restraining           0.000000000000 Eh    ::
         :: total charge               1.000000000000 e     ::
         ::.................................................::
         :: atomisation energy         8.387453036449 Eh    ::
         :::::::::::::::::::::::::::::::::::::::::::::::::::::

           -------------------------------------------------
          |                Property Printout                |
           -------------------------------------------------

    * Orbital Energies and Occupations

         #    Occupation            Energy/Eh            Energy/eV
      -------------------------------------------------------------
         1        2.0000           -0.8535217             -23.2255
       ...           ...                  ...                  ...
        24        2.0000           -0.6405244             -17.4296
        25        2.0000           -0.6363330             -17.3155
        26        2.0000           -0.6238543             -16.9759
        27        2.0000           -0.6205666             -16.8865
        28        2.0000           -0.6045764             -16.4514
        29        2.0000           -0.5981002             -16.2751
        30        2.0000           -0.5895657             -16.0429
        31        2.0000           -0.5841917             -15.8967
        32        2.0000           -0.5821005             -15.8398
        33        2.0000           -0.5726859             -15.5836
        34        2.0000           -0.5675585             -15.4441
        35        2.0000           -0.5440223             -14.8036
        36        2.0000           -0.5295859             -14.4108 (HOMO)
        37                         -0.4881485             -13.2832 (LUMO)
        38                         -0.4010017             -10.9118
        39                         -0.3893015             -10.5934
        40                         -0.3734136             -10.1611
        41                         -0.3487019              -9.4887
        42                         -0.2675903              -7.2815
        43                         -0.2341081              -6.3704
        44                         -0.2016692              -5.4877
        45                         -0.0848206              -2.3081
        46                         -0.0689788              -1.8770
        47                         -0.0595127              -1.6194
       ...                                ...                  ...
        71                          0.4989282              13.5765
      -------------------------------------------------------------
                  HL-Gap            0.0414374 Eh            1.1276 eV
             Fermi-level           -0.5088672 Eh          -13.8470 eV

     #   Z          covCN         q      C6AA      α(0)
     1   6 C        3.681    -0.076    22.185     6.746
     2   7 N        2.739     0.045    20.454     6.717
     3   6 C        2.917     0.068    26.480     8.438
     4   6 C        2.912    -0.044    29.082     8.843
     5   6 C        2.908     0.001    28.000     8.677
     6   6 C        2.911    -0.010    28.267     8.718
     7   6 C        2.917    -0.018    28.457     8.748
     8   6 C        2.926     0.106    25.666     8.308
     9   7 N        1.851    -0.177    25.645     7.506
    10   6 C        2.926     0.106    25.666     8.308
    11   6 C        2.917    -0.018    28.457     8.748
    12   6 C        2.911    -0.010    28.267     8.718
    13   6 C        2.908     0.001    28.000     8.677
    14   6 C        2.912    -0.044    29.082     8.843
    15   6 C        2.917     0.068    26.480     8.438
    16   1 H        0.922     0.099     1.791     2.093
    17   1 H        0.922     0.096     1.821     2.110
    18   1 H        0.922     0.096     1.821     2.110
    19   1 H        0.926     0.075     2.028     2.227
    20   1 H        0.925     0.089     1.885     2.147
    21   1 H        0.925     0.089     1.891     2.150
    22   1 H        0.925     0.102     1.770     2.081
    23   1 H        0.925     0.102     1.770     2.081
    24   1 H        0.925     0.089     1.891     2.150
    25   1 H        0.925     0.089     1.885     2.147
    26   1 H        0.926     0.075     2.028     2.227

 Mol. C6AA /au·bohr⁶  :       8530.764813
 Mol. C8AA /au·bohr⁸  :     213114.483744
 Mol. α(0) /au        :        147.954603


Wiberg/Mayer (AO) data.
largest (>0.10) Wiberg bond orders for each atom

 ---------------------------------------------------------------------------
     #   Z sym  total        # sym  WBO       # sym  WBO       # sym  WBO
 ---------------------------------------------------------------------------
     1   6 C    3.938 --     2 N    0.983    17 H    0.968    18 H    0.968
                            16 H    0.958
     2   7 N    3.706 --    15 C    1.227     3 C    1.227     1 C    0.983
     3   6 C    3.962 --     4 C    1.312     2 N    1.227     8 C    1.170
     4   6 C    3.980 --     5 C    1.506     3 C    1.312    19 H    0.962
                             7 C    0.124
     5   6 C    3.958 --     4 C    1.506     6 C    1.332    20 H    0.964
     6   6 C    3.966 --     7 C    1.540     5 C    1.332    21 H    0.964
     7   6 C    3.970 --     6 C    1.540     8 C    1.254    22 H    0.960
                             4 C    0.124
     8   6 C    3.981 --     9 N    1.372     7 C    1.254     3 C    1.170
     9   7 N    3.075 --     8 C    1.372    10 C    1.372
    10   6 C    3.981 --     9 N    1.372    11 C    1.254    15 C    1.170
    11   6 C    3.970 --    12 C    1.540    10 C    1.254    23 H    0.960
                            14 C    0.124
    12   6 C    3.966 --    11 C    1.540    13 C    1.332    24 H    0.964
    13   6 C    3.958 --    14 C    1.506    12 C    1.332    25 H    0.964
    14   6 C    3.980 --    13 C    1.506    15 C    1.312    26 H    0.962
                            11 C    0.124
    15   6 C    3.962 --    14 C    1.312     2 N    1.227    10 C    1.170
    16   1 H    0.989 --     1 C    0.958
    17   1 H    0.989 --     1 C    0.968
    18   1 H    0.989 --     1 C    0.968
    19   1 H    0.994 --     4 C    0.962
    20   1 H    0.991 --     5 C    0.964
    21   1 H    0.991 --     6 C    0.964
    22   1 H    0.989 --     7 C    0.960
    23   1 H    0.989 --    11 C    0.960
    24   1 H    0.991 --    12 C    0.964
    25   1 H    0.991 --    13 C    0.964
    26   1 H    0.994 --    14 C    0.962
 ---------------------------------------------------------------------------

Topologies differ in total number of bonds
Writing topology from bond orders to xtbtopo.mol

molecular dipole:
                 x           y           z       tot (Debye)
 q only:        0.065       0.575       0.031
   full:        0.110       0.990       0.005       2.531
molecular quadrupole (traceless):
                xx          xy          yy          xz          yz          zz
 q only:       23.877      -2.797      -0.605      -3.297       0.561     -23.272
  q+dip:       27.713      -3.245      -0.390      -3.901       0.185     -27.323
   full:       24.596      -3.156      -3.177      -3.190       0.819     -21.420


           -------------------------------------------------
          | TOTAL ENERGY              -38.874549318966 Eh   |
          | GRADIENT NORM               0.108039216298 Eh/α |
          | HOMO-LUMO GAP               1.127568935432 eV   |
           -------------------------------------------------
########################################################################
[WARNING] Runtime exception occurred
-2- restart_readRestart: Dimension missmatch in restart file.
-1- restart_readRestart: Number of electron missmatch in restart file.
########################################################################

------------------------------------------------------------------------
 unit  open   action     filename
  129 false : read       dft_tmp\135.xyz
  129 false : read       dft_tmp\135.xyz
  129 false : read       dft_tmp\135.xyz
  129 false : read       C:\Users\nkapa\Downloads\xtb-6.7.1pre-windows-x86_64\xtb-6.7.1\share\xtb\param_gfn2-xtb.txt
  129 false : deleted    .sccnotconverged
  129 false : read       xtbrestart
  129 false : replaced   charges
  129 false : replaced   wbo
  129 false : replaced   xtbtopo.mol
  129 false : replaced   xtbrestart

------------------------------------------------------------------------
 * finished run on 2025/06/23 at 11:31:50.004     
------------------------------------------------------------------------
 total:
 * wall-time:     0 d,  0 h,  0 min,  0.063 sec
 *  cpu-time:     0 d,  0 h,  0 min,  0.469 sec
 * ratio c/w:     7.440 speedup
 SCF:
 * wall-time:     0 d,  0 h,  0 min,  0.025 sec
 *  cpu-time:     0 d,  0 h,  0 min,  0.250 sec
 * ratio c/w:    10.000 speedup

normal termination of xtb
