17

C 2.638815 -0.105349 0.699940
O 1.290925 0.275496 0.453215
C 0.478007 -0.387493 -0.471948
O 0.925525 -1.363299 -1.134548
C -0.942592 0.068093 -0.681555
C -1.749673 -0.033360 0.621266
O -1.787229 -1.357709 1.082251
N -0.975599 1.443101 -1.183028
H 3.072013 0.565587 1.469770
H 2.676237 -1.151267 1.071605
H 3.235710 -0.016332 -0.232400
H -1.428207 -0.588586 -1.438272
H -2.785366 0.341699 0.454199
H -1.287224 0.603867 1.405597
H -2.427469 -1.843537 0.499331
H -0.466374 2.071062 -0.518333
H -0.467499 1.478027 -2.097092
