      -----------------------------------------------------------      
     |                   =====================                   |     
     |                           x T B                           |     
     |                   =====================                   |     
     |                         S. Grimme                         |     
     |          Mulliken Center for Theoretical Chemistry        |     
     |                    University of Bonn                     |     
      -----------------------------------------------------------      

   * xtb version 6.7.1pre (5071a88) compiled by 'Marcel@Raven' on 2024-07-23

   xtb is free software: you can redistribute it and/or modify it under
   the terms of the GNU Lesser General Public License as published by
   the Free Software Foundation, either version 3 of the License, or
   (at your option) any later version.
   
   xtb is distributed in the hope that it will be useful,
   but WITHOUT ANY WARRANTY; without even the implied warranty of
   MERCHANTABILITY or FITNESS FOR A PARTICULAR PURPOSE.  See the
   GNU Lesser General Public License for more details.
   
   Cite this work as:
   * C. Bannwarth, E. Caldeweyher, S. Ehlert, A. Hansen, P. Pracht,
     J. Seibert, S. Spicher, S. Grimme, WIREs Comput. Mol. Sci., 2020, 11,
     e01493. DOI: 10.1002/wcms.1493
   
   for GFN2-xTB:
   * C. Bannwarth, S. Ehlert and S. Grimme., J. Chem. Theory Comput., 2019,
     15, 1652-1671. DOI: 10.1021/acs.jctc.8b01176
   for GFN1-xTB:
   * S. Grimme, C. Bannwarth, P. Shushkov, J. Chem. Theory Comput., 2017,
     13, 1989-2009. DOI: 10.1021/acs.jctc.7b00118
   for GFN0-xTB:
   * P. Pracht, E. Caldeweyher, S. Ehlert, S. Grimme, ChemRxiv, 2019, preprint.
     DOI: 10.26434/chemrxiv.8326202.v1
   for GFN-FF:
   * S. Spicher and S. Grimme, Angew. Chem. Int. Ed., 2020, 59, 15665-15673.
     DOI: 10.1002/anie.202004239
   
   for ALPB and GBSA implicit solvation:
   * S. Ehlert, M. Stahn, S. Spicher, S. Grimme, J. Chem. Theory Comput.,
     2021, 17, 4250-4261. DOI: 10.1021/acs.jctc.1c00471
   
   for ddCOSMO and CPCM-X implicit solvation:
   * M. Stahn, S. Ehlert, S. Grimme, J. Phys. Chem. A,
     2023, XX, XXXX-XXXX. DOI: 10.1021/acs.jpca.3c04382
   
   for DFT-D4:
   * E. Caldeweyher, C. Bannwarth and S. Grimme, J. Chem. Phys., 2017,
     147, 034112. DOI: 10.1063/1.4993215
   * E. Caldeweyher, S. Ehlert, A. Hansen, H. Neugebauer, S. Spicher,
     C. Bannwarth and S. Grimme, J. Chem. Phys., 2019, 150, 154122.
     DOI: 10.1063/1.5090222
   * E. Caldeweyher, J.-M. Mewes, S. Ehlert and S. Grimme, Phys. Chem. Chem. Phys.
     2020, 22, 8499-8512. DOI: 10.1039/D0CP00502A
   
   for sTDA-xTB:
   * S. Grimme and C. Bannwarth, J. Chem. Phys., 2016, 145, 054103.
     DOI: 10.1063/1.4959605
   
   in the mass-spec context:
   * V. Asgeirsson, C. Bauer and S. Grimme, Chem. Sci., 2017, 8, 4879.
     DOI: 10.1039/c7sc00601b
   * J. Koopman and S. Grimme, ACS Omega 2019, 4, 12, 15120-15133.
     DOI: 10.1021/acsomega.9b02011
   
   for metadynamics refer to:
   * S. Grimme, J. Chem. Theory Comput., 2019, 155, 2847-2862
     DOI: 10.1021/acs.jctc.9b00143
   
   for SPH calculations refer to:
   * S. Spicher and S. Grimme, J. Chem. Theory Comput., 2021, 17, 1701-1714
     DOI: 10.1021/acs.jctc.0c01306
   
   for ONIOM refer to:
   * C. Plett, A. Katbashev, S. Ehlert, S. Grimme, M. Bursch,
     Phys. Chem. Chem. Phys., 2023, 25, 17860-17868. DOI: 10.1039/D3CP02178E
   
   for DIPRO refer to:
   * J. Kohn, N. Gildemeister, S. Grimme, D. Fazzi, A. Hansen,
     J. Chem. Phys., 2023, just accepted.
   
   for PTB refer to:
   * S. Grimme, M. Mueller, A. Hansen, J. Chem. Phys., 2023, 158, 124111.
     DOI: 10.1063/5.0137838
   
   with help from (in alphabetical order)
   P. Atkinson, C. Bannwarth, F. Bohle, G. Brandenburg, E. Caldeweyher
   M. Checinski, S. Dohm, S. Ehlert, S. Ehrlich, I. Gerasimov, C. Hölzer
   A. Katbashev, J. Kohn, J. Koopman, C. Lavigne, S. Lehtola, F. März, M. Müller,
   F. Musil, H. Neugebauer, J. Pisarek, C. Plett, P. Pracht, F. Pultar,
   J. Seibert, P. Shushkov, S. Spicher, M. Stahn, M. Steiner, T. Strunk,
   J. Stückrath, T. Rose, and J. Unsleber
   
 * started run on 2025/06/23 at 11:31:50.282     
$$$$$$$$$$$$$$$$$$$$$$$$$$$$$$$$$$$$$$$$$$$$$$$$$$$$$$$$$$$$$$$$$$$$$$$$
 CONSTRAINTS & SCANS: DEBUG SECTION
$$$$$$$$$$$$$$$$$$$$$$$$$$$$$$$$$$$$$$$$$$$$$$$$$$$$$$$$$$$$$$$$$$$$$$$$
   ID    Z sym.   atoms
    1    6 C      1-8
    2    7 N      9
    3    8 O      10, 11
    4    1 H      12-22
$$$$$$$$$$$$$$$$$$$$$$$$$$$$$$$$$$$$$$$$$$$$$$$$$$$$$$$$$$$$$$$$$$$$$$$$

           -------------------------------------------------
          |                Calculation Setup                |
           -------------------------------------------------

          program call               : C:\Users\nkapa\Downloads\xtb-6.7.1pre-windows-x86_64\xtb-6.7.1\bin\xtb.EXE dft_tmp\138.xyz --gfn2 --parallel 8 --verbose
          coordinate file            : dft_tmp\138.xyz
          xtbhome directory          : C:\Users\nkapa\AppData\Roaming\SPB_Data
          path for xtb               : C:\Users\nkapa\Downloads\xtb-6.7.1pre-windows-x86_64\xtb-6.7.1\share\xtb
          xcontrol input file        : dft_tmp\138.xyz
          omp threads                :                     8


           -------------------------------------------------
          |                 G F N 2 - x T B                 |
           -------------------------------------------------

        Reference                      10.1021/acs.jctc.8b01176
      * Hamiltonian:
        H0-scaling (s, p, d)           1.850000    2.230000    2.230000
        zeta-weighting                 0.500000
      * Dispersion:
        s8                             2.700000
        a1                             0.520000
        a2                             5.000000
        s9                             5.000000
      * Repulsion:
        kExp                           1.500000    1.000000
        rExp                           1.000000
      * Coulomb:
        alpha                          2.000000
        third order                    shell-resolved
        anisotropic                    true
        a3                             3.000000
        a5                             4.000000
        cn-shift                       1.200000
        cn-exp                         4.000000
        max-rad                        5.000000


          ...................................................
          :                      SETUP                      :
          :.................................................:
          :  # basis functions                  55          :
          :  # atomic orbitals                  55          :
          :  # shells                           33          :
          :  # electrons                        60          :
          :  max. iterations                   250          :
          :  Hamiltonian                  GFN2-xTB          :
          :  restarted?                      false          :
          :  GBSA solvation                  false          :
          :  PC potential                    false          :
          :  electronic temp.          300.0000000     K    :
          :  accuracy                    1.0000000          :
          :  -> integral cutoff          0.2500000E+02      :
          :  -> integral neglect         0.1000000E-07      :
          :  -> SCF convergence          0.1000000E-05 Eh   :
          :  -> wf. convergence          0.1000000E-03 e    :
          :  Broyden damping             0.4000000          :
          :  net charge                          0          :
          :  unpaired electrons                  0          :
          ...................................................

 iter      E             dE          RMSdq      gap      omega  full diag
   1    -34.1373802 -0.341374E+02  0.387E+00    3.73       0.0  T
   2    -34.1584653 -0.210851E-01  0.222E+00    3.99       1.0  T
   3    -34.1568542  0.161105E-02  0.689E-01    3.83       1.0  T
   4    -34.1603747 -0.352049E-02  0.284E-01    4.03       1.0  T
   5    -34.1612308 -0.856097E-03  0.803E-02    3.97       1.0  T
   6    -34.1612425 -0.117398E-04  0.413E-02    3.96       1.0  T
   7    -34.1612608 -0.182263E-04  0.103E-02    3.97       2.1  T
   8    -34.1612610 -0.199705E-06  0.434E-03    3.97       4.9  T
   9    -34.1612610  0.404000E-08  0.169E-03    3.97      12.6  T
  10    -34.1612610 -0.543595E-07  0.443E-04    3.97      48.2  T
  11    -34.1612610 -0.764793E-09  0.215E-04    3.97      99.3  T

   *** convergence criteria satisfied after 11 iterations ***

         #    Occupation            Energy/Eh            Energy/eV
      -------------------------------------------------------------
         1        2.0000           -0.7013105             -19.0836
       ...           ...                  ...                  ...
        24        2.0000           -0.4380782             -11.9207
        25        2.0000           -0.4334844             -11.7957
        26        2.0000           -0.4321490             -11.7594
        27        2.0000           -0.4227829             -11.5045
        28        2.0000           -0.3887218             -10.5777
        29        2.0000           -0.3688299             -10.0364
        30        2.0000           -0.3663506              -9.9689 (HOMO)
        31                         -0.2204913              -5.9999 (LUMO)
        32                         -0.2117063              -5.7608
        33                         -0.0941844              -2.5629
        34                         -0.0346640              -0.9433
        35                          0.0015416               0.0419
       ...                                ...                  ...
        55                          0.6176188              16.8063
      -------------------------------------------------------------
                  HL-Gap            0.1458593 Eh            3.9690 eV
             Fermi-level           -0.2934210 Eh           -7.9844 eV

 SCC (total)                   0 d,  0 h,  0 min,  0.016 sec
 SCC setup                      ...        0 min,  0.001 sec (  6.250%)
 Dispersion                     ...        0 min,  0.001 sec (  6.250%)
 classical contributions        ...        0 min,  0.000 sec (  0.000%)
 integral evaluation            ...        0 min,  0.001 sec (  6.251%)
 iterations                     ...        0 min,  0.010 sec ( 62.500%)
 molecular gradient             ...        0 min,  0.003 sec ( 18.750%)
 printout                       ...        0 min,  0.000 sec (  0.000%)

         :::::::::::::::::::::::::::::::::::::::::::::::::::::
         ::                     SUMMARY                     ::
         :::::::::::::::::::::::::::::::::::::::::::::::::::::
         :: total energy             -33.760602915153 Eh    ::
         :: gradient norm              0.089901716181 Eh/a0 ::
         :: HOMO-LUMO gap              3.969033238997 eV    ::
         ::.................................................::
         :: HOMO orbital eigv.        -9.968908130360 eV    ::
         :: LUMO orbital eigv.        -5.999874891363 eV    ::
         ::.................................................::
         :: SCC energy               -34.161257517134 Eh    ::
         :: -> isotropic ES            0.054189215837 Eh    ::
         :: -> anisotropic ES          0.006682959550 Eh    ::
         :: -> anisotropic XC          0.013678222220 Eh    ::
         :: -> dispersion             -0.017222014120 Eh    ::
         :: repulsion energy           0.400654601981 Eh    ::
         :: add. restraining           0.000000000000 Eh    ::
         :: total charge              -0.000000000000 e     ::
         ::.................................................::
         :: atomisation energy         6.386994768000 Eh    ::
         :::::::::::::::::::::::::::::::::::::::::::::::::::::

           -------------------------------------------------
          |                Property Printout                |
           -------------------------------------------------

    * Orbital Energies and Occupations

         #    Occupation            Energy/Eh            Energy/eV
      -------------------------------------------------------------
         1        2.0000           -0.7013105             -19.0836
       ...           ...                  ...                  ...
        18        2.0000           -0.4910456             -13.3620
        19        2.0000           -0.4860587             -13.2263
        20        2.0000           -0.4825687             -13.1314
        21        2.0000           -0.4731383             -12.8747
        22        2.0000           -0.4691922             -12.7674
        23        2.0000           -0.4556179             -12.3980
        24        2.0000           -0.4380782             -11.9207
        25        2.0000           -0.4334844             -11.7957
        26        2.0000           -0.4321490             -11.7594
        27        2.0000           -0.4227829             -11.5045
        28        2.0000           -0.3887218             -10.5777
        29        2.0000           -0.3688299             -10.0364
        30        2.0000           -0.3663506              -9.9689 (HOMO)
        31                         -0.2204913              -5.9999 (LUMO)
        32                         -0.2117063              -5.7608
        33                         -0.0941844              -2.5629
        34                         -0.0346640              -0.9433
        35                          0.0015416               0.0419
        36                          0.0302815               0.8240
        37                          0.0944332               2.5697
        38                          0.1082777               2.9464
        39                          0.1211170               3.2958
        40                          0.1237926               3.3686
        41                          0.1289446               3.5088
       ...                                ...                  ...
        55                          0.6176188              16.8063
      -------------------------------------------------------------
                  HL-Gap            0.1458593 Eh            3.9690 eV
             Fermi-level           -0.2934210 Eh           -7.9844 eV

     #   Z          covCN         q      C6AA      α(0)
     1   6 C        2.912    -0.053    29.322     8.879
     2   6 C        2.909    -0.071    29.765     8.946
     3   6 C        2.835     0.113    25.497     8.275
     4   6 C        2.834     0.133    25.075     8.206
     5   6 C        2.912    -0.062    29.539     8.912
     6   6 C        2.963     0.002    27.975     8.675
     7   6 C        3.802    -0.065    21.737     6.638
     8   6 C        3.728     0.031    20.143     6.408
     9   7 N        2.624    -0.334    28.591     7.941
    10   8 O        1.648    -0.396    20.785     6.154
    11   8 O        1.648    -0.413    21.098     6.200
    12   1 H        0.925     0.035     2.512     2.478
    13   1 H        0.925     0.033     2.539     2.492
    14   1 H        0.925     0.060     2.201     2.320
    15   1 H        0.921     0.038     2.470     2.458
    16   1 H        0.921     0.052     2.296     2.370
    17   1 H        0.921     0.002     3.017     2.716
    18   1 H        0.921     0.033     2.542     2.494
    19   1 H        0.857     0.132     1.531     1.938
    20   1 H        0.857     0.131     1.535     1.941
    21   1 H        0.796     0.303     0.713     1.327
    22   1 H        0.796     0.292     0.749     1.360

 Mol. C6AA /au·bohr⁶  :       4956.765402
 Mol. C8AA /au·bohr⁸  :     114239.737247
 Mol. α(0) /au        :        109.129025


Wiberg/Mayer (AO) data.
largest (>0.10) Wiberg bond orders for each atom

 ---------------------------------------------------------------------------
     #   Z sym  total        # sym  WBO       # sym  WBO       # sym  WBO
 ---------------------------------------------------------------------------
     1   6 C    3.989 --     2 C    1.436     6 C    1.407    12 H    0.970
     2   6 C    3.986 --     1 C    1.436     3 C    1.390    13 H    0.968
     3   6 C    3.929 --     2 C    1.390     4 C    1.313    11 O    1.038
     4   6 C    3.937 --     5 C    1.387     3 C    1.313    10 O    1.060
     5   6 C    3.983 --     6 C    1.409     4 C    1.387    14 H    0.965
     6   6 C    3.987 --     5 C    1.409     1 C    1.407     7 C    1.012
     7   6 C    3.995 --     6 C    1.012     8 C    0.988    15 H    0.971
                            16 H    0.970
     8   6 C    3.986 --     9 N    1.021     7 C    0.988    18 H    0.975
                            17 H    0.972
     9   7 N    2.996 --     8 C    1.021    19 H    0.969    20 H    0.968
    10   8 O    2.105 --     4 C    1.060    21 H    0.885
    11   8 O    2.080 --     3 C    1.038    22 H    0.891
    12   1 H    0.999 --     1 C    0.970
    13   1 H    0.999 --     2 C    0.968
    14   1 H    0.996 --     5 C    0.965
    15   1 H    0.998 --     7 C    0.971
    16   1 H    0.997 --     7 C    0.970
    17   1 H    1.000 --     8 C    0.972
    18   1 H    0.999 --     8 C    0.975
    19   1 H    0.983 --     9 N    0.969
    20   1 H    0.982 --     9 N    0.968
    21   1 H    0.907 --    10 O    0.885
    22   1 H    0.914 --    11 O    0.891
 ---------------------------------------------------------------------------

Topologies differ in total number of bonds
Writing topology from bond orders to xtbtopo.mol

molecular dipole:
                 x           y           z       tot (Debye)
 q only:        0.124       0.594      -0.244
   full:        0.317       1.313      -0.364       3.556
molecular quadrupole (traceless):
                xx          xy          yy          xz          yz          zz
 q only:        5.060       2.451      -2.299      -0.822      -0.576      -2.761
  q+dip:        7.035       1.157      -2.721      -1.314      -2.647      -4.314
   full:        7.183       0.733      -3.612      -1.886      -1.042      -3.571


           -------------------------------------------------
          | TOTAL ENERGY              -33.760602915153 Eh   |
          | GRADIENT NORM               0.089901716181 Eh/α |
          | HOMO-LUMO GAP               3.969033238997 eV   |
           -------------------------------------------------
########################################################################
[WARNING] Runtime exception occurred
-2- restart_readRestart: Dimension missmatch in restart file.
-1- restart_readRestart: Number of electron missmatch in restart file.
########################################################################

------------------------------------------------------------------------
 unit  open   action     filename
  129 false : read       dft_tmp\138.xyz
  129 false : read       dft_tmp\138.xyz
  129 false : read       dft_tmp\138.xyz
  129 false : read       C:\Users\nkapa\Downloads\xtb-6.7.1pre-windows-x86_64\xtb-6.7.1\share\xtb\param_gfn2-xtb.txt
  129 false : read       xtbrestart
  129 false : replaced   charges
  129 false : replaced   wbo
  129 false : replaced   xtbtopo.mol
  129 false : replaced   xtbrestart

------------------------------------------------------------------------
 * finished run on 2025/06/23 at 11:31:50.352     
------------------------------------------------------------------------
 total:
 * wall-time:     0 d,  0 h,  0 min,  0.068 sec
 *  cpu-time:     0 d,  0 h,  0 min,  0.391 sec
 * ratio c/w:     5.744 speedup
 SCF:
 * wall-time:     0 d,  0 h,  0 min,  0.016 sec
 *  cpu-time:     0 d,  0 h,  0 min,  0.125 sec
 * ratio c/w:     7.812 speedup

normal termination of xtb
