30

C -4.453414 1.502628 -0.101312
C -4.696336 0.200278 0.334287
C -3.633829 -0.687979 0.513106
C -2.311194 -0.279395 0.256417
C -2.066608 1.037310 -0.183888
C -3.146986 1.922013 -0.359864
C -0.680668 1.476710 -0.456475
O -0.463786 2.655936 -0.850674
C 0.452726 0.537763 -0.268395
C 1.764620 0.962375 -0.529659
C 2.852353 0.098540 -0.361432
C 2.626549 -1.221584 0.080597
C 1.315259 -1.659641 0.345220
C 0.218177 -0.782575 0.172322
C -1.181166 -1.219806 0.445249
O -1.417380 -2.394500 0.839533
O 1.100182 -2.969704 0.781721
O 3.680218 -2.121188 0.267757
S 4.482457 0.691215 -0.710837
O 5.316254 0.637262 0.538152
O 4.434528 2.111908 -1.199597
O 5.182880 -0.261721 -1.904140
Na 0.000000 0.000000 0.000000
H -5.278978 2.188980 -0.239051
H -5.710131 -0.122150 0.533968
H -3.848128 -1.693748 0.852084
H -2.982947 2.937778 -0.697170
H 1.940417 1.975335 -0.867426
H 1.853842 -3.632093 0.919406
H 4.651089 -1.889946 0.108400
