22

C 0.375345 0.888055 -1.061860
C 1.711966 1.256968 -0.889850
C 2.562449 0.480715 -0.090477
C 2.064437 -0.671393 0.542261
C 0.724972 -1.037895 0.366946
C -0.124512 -0.268560 -0.444126
C -1.572852 -0.647825 -0.601947
C -2.424689 0.010133 0.485528
N -3.822297 -0.381995 0.335315
O 2.882952 -1.461480 1.348736
O 3.895745 0.850592 0.078859
H -0.270399 1.504139 -1.675443
H 2.085586 2.149128 -1.376150
H 0.346558 -1.922495 0.864854
H -1.938144 -0.332713 -1.604128
H -1.683938 -1.752929 -0.542309
H -2.335133 1.118213 0.420785
H -2.061115 -0.315556 1.485313
H -4.198808 0.073891 -0.527761
H -4.354076 0.022536 1.139748
H 3.858184 -1.238539 1.507687
H 4.277769 1.677008 -0.366101
