      -----------------------------------------------------------      
     |                   =====================                   |     
     |                           x T B                           |     
     |                   =====================                   |     
     |                         S. Grimme                         |     
     |          Mulliken Center for Theoretical Chemistry        |     
     |                    University of Bonn                     |     
      -----------------------------------------------------------      

   * xtb version 6.7.1pre (5071a88) compiled by 'Marcel@Raven' on 2024-07-23

   xtb is free software: you can redistribute it and/or modify it under
   the terms of the GNU Lesser General Public License as published by
   the Free Software Foundation, either version 3 of the License, or
   (at your option) any later version.
   
   xtb is distributed in the hope that it will be useful,
   but WITHOUT ANY WARRANTY; without even the implied warranty of
   MERCHANTABILITY or FITNESS FOR A PARTICULAR PURPOSE.  See the
   GNU Lesser General Public License for more details.
   
   Cite this work as:
   * C. Bannwarth, E. Caldeweyher, S. Ehlert, A. Hansen, P. Pracht,
     J. Seibert, S. Spicher, S. Grimme, WIREs Comput. Mol. Sci., 2020, 11,
     e01493. DOI: 10.1002/wcms.1493
   
   for GFN2-xTB:
   * C. Bannwarth, S. Ehlert and S. Grimme., J. Chem. Theory Comput., 2019,
     15, 1652-1671. DOI: 10.1021/acs.jctc.8b01176
   for GFN1-xTB:
   * S. Grimme, C. Bannwarth, P. Shushkov, J. Chem. Theory Comput., 2017,
     13, 1989-2009. DOI: 10.1021/acs.jctc.7b00118
   for GFN0-xTB:
   * P. Pracht, E. Caldeweyher, S. Ehlert, S. Grimme, ChemRxiv, 2019, preprint.
     DOI: 10.26434/chemrxiv.8326202.v1
   for GFN-FF:
   * S. Spicher and S. Grimme, Angew. Chem. Int. Ed., 2020, 59, 15665-15673.
     DOI: 10.1002/anie.202004239
   
   for ALPB and GBSA implicit solvation:
   * S. Ehlert, M. Stahn, S. Spicher, S. Grimme, J. Chem. Theory Comput.,
     2021, 17, 4250-4261. DOI: 10.1021/acs.jctc.1c00471
   
   for ddCOSMO and CPCM-X implicit solvation:
   * M. Stahn, S. Ehlert, S. Grimme, J. Phys. Chem. A,
     2023, XX, XXXX-XXXX. DOI: 10.1021/acs.jpca.3c04382
   
   for DFT-D4:
   * E. Caldeweyher, C. Bannwarth and S. Grimme, J. Chem. Phys., 2017,
     147, 034112. DOI: 10.1063/1.4993215
   * E. Caldeweyher, S. Ehlert, A. Hansen, H. Neugebauer, S. Spicher,
     C. Bannwarth and S. Grimme, J. Chem. Phys., 2019, 150, 154122.
     DOI: 10.1063/1.5090222
   * E. Caldeweyher, J.-M. Mewes, S. Ehlert and S. Grimme, Phys. Chem. Chem. Phys.
     2020, 22, 8499-8512. DOI: 10.1039/D0CP00502A
   
   for sTDA-xTB:
   * S. Grimme and C. Bannwarth, J. Chem. Phys., 2016, 145, 054103.
     DOI: 10.1063/1.4959605
   
   in the mass-spec context:
   * V. Asgeirsson, C. Bauer and S. Grimme, Chem. Sci., 2017, 8, 4879.
     DOI: 10.1039/c7sc00601b
   * J. Koopman and S. Grimme, ACS Omega 2019, 4, 12, 15120-15133.
     DOI: 10.1021/acsomega.9b02011
   
   for metadynamics refer to:
   * S. Grimme, J. Chem. Theory Comput., 2019, 155, 2847-2862
     DOI: 10.1021/acs.jctc.9b00143
   
   for SPH calculations refer to:
   * S. Spicher and S. Grimme, J. Chem. Theory Comput., 2021, 17, 1701-1714
     DOI: 10.1021/acs.jctc.0c01306
   
   for ONIOM refer to:
   * C. Plett, A. Katbashev, S. Ehlert, S. Grimme, M. Bursch,
     Phys. Chem. Chem. Phys., 2023, 25, 17860-17868. DOI: 10.1039/D3CP02178E
   
   for DIPRO refer to:
   * J. Kohn, N. Gildemeister, S. Grimme, D. Fazzi, A. Hansen,
     J. Chem. Phys., 2023, just accepted.
   
   for PTB refer to:
   * S. Grimme, M. Mueller, A. Hansen, J. Chem. Phys., 2023, 158, 124111.
     DOI: 10.1063/5.0137838
   
   with help from (in alphabetical order)
   P. Atkinson, C. Bannwarth, F. Bohle, G. Brandenburg, E. Caldeweyher
   M. Checinski, S. Dohm, S. Ehlert, S. Ehrlich, I. Gerasimov, C. Hölzer
   A. Katbashev, J. Kohn, J. Koopman, C. Lavigne, S. Lehtola, F. März, M. Müller,
   F. Musil, H. Neugebauer, J. Pisarek, C. Plett, P. Pracht, F. Pultar,
   J. Seibert, P. Shushkov, S. Spicher, M. Stahn, M. Steiner, T. Strunk,
   J. Stückrath, T. Rose, and J. Unsleber
   
 * started run on 2025/06/23 at 11:31:30.518     
$$$$$$$$$$$$$$$$$$$$$$$$$$$$$$$$$$$$$$$$$$$$$$$$$$$$$$$$$$$$$$$$$$$$$$$$
 CONSTRAINTS & SCANS: DEBUG SECTION
$$$$$$$$$$$$$$$$$$$$$$$$$$$$$$$$$$$$$$$$$$$$$$$$$$$$$$$$$$$$$$$$$$$$$$$$
   ID    Z sym.   atoms
    1    6 C      1, 2, 4, 6, 7
    2    8 O      3, 5, 8
    3    1 H      9-18
$$$$$$$$$$$$$$$$$$$$$$$$$$$$$$$$$$$$$$$$$$$$$$$$$$$$$$$$$$$$$$$$$$$$$$$$

           -------------------------------------------------
          |                Calculation Setup                |
           -------------------------------------------------

          program call               : C:\Users\nkapa\Downloads\xtb-6.7.1pre-windows-x86_64\xtb-6.7.1\bin\xtb.EXE dft_tmp\16.xyz --gfn2 --parallel 8 --verbose
          coordinate file            : dft_tmp\16.xyz
          xtbhome directory          : C:\Users\nkapa\AppData\Roaming\SPB_Data
          path for xtb               : C:\Users\nkapa\Downloads\xtb-6.7.1pre-windows-x86_64\xtb-6.7.1\share\xtb
          xcontrol input file        : dft_tmp\16.xyz
          omp threads                :                     8


           -------------------------------------------------
          |                 G F N 2 - x T B                 |
           -------------------------------------------------

        Reference                      10.1021/acs.jctc.8b01176
      * Hamiltonian:
        H0-scaling (s, p, d)           1.850000    2.230000    2.230000
        zeta-weighting                 0.500000
      * Dispersion:
        s8                             2.700000
        a1                             0.520000
        a2                             5.000000
        s9                             5.000000
      * Repulsion:
        kExp                           1.500000    1.000000
        rExp                           1.000000
      * Coulomb:
        alpha                          2.000000
        third order                    shell-resolved
        anisotropic                    true
        a3                             3.000000
        a5                             4.000000
        cn-shift                       1.200000
        cn-exp                         4.000000
        max-rad                        5.000000


          ...................................................
          :                      SETUP                      :
          :.................................................:
          :  # basis functions                  42          :
          :  # atomic orbitals                  42          :
          :  # shells                           26          :
          :  # electrons                        48          :
          :  max. iterations                   250          :
          :  Hamiltonian                  GFN2-xTB          :
          :  restarted?                      false          :
          :  GBSA solvation                  false          :
          :  PC potential                    false          :
          :  electronic temp.          300.0000000     K    :
          :  accuracy                    1.0000000          :
          :  -> integral cutoff          0.2500000E+02      :
          :  -> integral neglect         0.1000000E-07      :
          :  -> SCF convergence          0.1000000E-05 Eh   :
          :  -> wf. convergence          0.1000000E-03 e    :
          :  Broyden damping             0.4000000          :
          :  net charge                          0          :
          :  unpaired electrons                  0          :
          ...................................................

 iter      E             dE          RMSdq      gap      omega  full diag
   1    -28.1567315 -0.281567E+02  0.431E+00    4.79       0.0  T
   2    -28.2150436 -0.583121E-01  0.219E+00    3.76       1.0  T
   3    -28.2182305 -0.318692E-02  0.136E+00    4.28       1.0  T
   4    -28.2249701 -0.673957E-02  0.211E-01    3.96       1.0  T
   5    -28.2253165 -0.346376E-03  0.809E-02    4.03       1.0  T
   6    -28.2253217 -0.524567E-05  0.320E-02    4.03       1.0  T
   7    -28.2253236 -0.191734E-05  0.894E-03    4.03       2.6  T
   8    -28.2253238 -0.173316E-06  0.336E-03    4.02       7.0  T
   9    -28.2253238 -0.152271E-07  0.135E-03    4.02      17.4  T
  10    -28.2253238 -0.421412E-08  0.361E-04    4.03      65.2  T
  11    -28.2253238 -0.351562E-09  0.174E-04    4.03     135.8  T

   *** convergence criteria satisfied after 11 iterations ***

         #    Occupation            Energy/Eh            Energy/eV
      -------------------------------------------------------------
         1        2.0000           -0.7353407             -20.0096
       ...           ...                  ...                  ...
        18        2.0000           -0.4807165             -13.0810
        19        2.0000           -0.4723394             -12.8530
        20        2.0000           -0.4647145             -12.6455
        21        2.0000           -0.4500708             -12.2471
        22        2.0000           -0.4452595             -12.1161
        23        2.0000           -0.4422156             -12.0333
        24        2.0000           -0.4132287             -11.2445 (HOMO)
        25                         -0.2653094              -7.2194 (LUMO)
        26                         -0.0482726              -1.3136
        27                          0.0455871               1.2405
        28                          0.0795804               2.1655
        29                          0.1002833               2.7288
       ...                                ...                  ...
        42                          0.4561258              12.4118
      -------------------------------------------------------------
                  HL-Gap            0.1479193 Eh            4.0251 eV
             Fermi-level           -0.3392690 Eh           -9.2320 eV

 SCC (total)                   0 d,  0 h,  0 min,  0.012 sec
 SCC setup                      ...        0 min,  0.000 sec (  0.000%)
 Dispersion                     ...        0 min,  0.000 sec (  0.000%)
 classical contributions        ...        0 min,  0.000 sec (  0.000%)
 integral evaluation            ...        0 min,  0.001 sec (  8.333%)
 iterations                     ...        0 min,  0.009 sec ( 75.001%)
 molecular gradient             ...        0 min,  0.002 sec ( 16.666%)
 printout                       ...        0 min,  0.000 sec (  0.000%)

         :::::::::::::::::::::::::::::::::::::::::::::::::::::
         ::                     SUMMARY                     ::
         :::::::::::::::::::::::::::::::::::::::::::::::::::::
         :: total energy             -27.994664252423 Eh    ::
         :: gradient norm              0.135988589215 Eh/a0 ::
         :: HOMO-LUMO gap              4.025090288009 eV    ::
         ::.................................................::
         :: HOMO orbital eigv.       -11.244525369253 eV    ::
         :: LUMO orbital eigv.        -7.219435081244 eV    ::
         ::.................................................::
         :: SCC energy               -28.225304680973 Eh    ::
         :: -> isotropic ES            0.069026891844 Eh    ::
         :: -> anisotropic ES          0.001919279744 Eh    ::
         :: -> anisotropic XC          0.003562946833 Eh    ::
         :: -> dispersion             -0.010289169975 Eh    ::
         :: repulsion energy           0.230640428550 Eh    ::
         :: add. restraining           0.000000000000 Eh    ::
         :: total charge               0.000000000000 e     ::
         ::.................................................::
         :: atomisation energy         4.648060879141 Eh    ::
         :::::::::::::::::::::::::::::::::::::::::::::::::::::

           -------------------------------------------------
          |                Property Printout                |
           -------------------------------------------------

    * Orbital Energies and Occupations

         #    Occupation            Energy/Eh            Energy/eV
      -------------------------------------------------------------
         1        2.0000           -0.7353407             -20.0096
       ...           ...                  ...                  ...
        12        2.0000           -0.5432521             -14.7826
        13        2.0000           -0.5403249             -14.7030
        14        2.0000           -0.5271369             -14.3441
        15        2.0000           -0.5099803             -13.8773
        16        2.0000           -0.4961316             -13.5004
        17        2.0000           -0.4843814             -13.1807
        18        2.0000           -0.4807165             -13.0810
        19        2.0000           -0.4723394             -12.8530
        20        2.0000           -0.4647145             -12.6455
        21        2.0000           -0.4500708             -12.2471
        22        2.0000           -0.4452595             -12.1161
        23        2.0000           -0.4422156             -12.0333
        24        2.0000           -0.4132287             -11.2445 (HOMO)
        25                         -0.2653094              -7.2194 (LUMO)
        26                         -0.0482726              -1.3136
        27                          0.0455871               1.2405
        28                          0.0795804               2.1655
        29                          0.1002833               2.7288
        30                          0.1004925               2.7345
        31                          0.1052511               2.8640
        32                          0.1207692               3.2863
        33                          0.1225784               3.3355
        34                          0.1282116               3.4888
        35                          0.1461732               3.9776
       ...                                ...                  ...
        42                          0.4561258              12.4118
      -------------------------------------------------------------
                  HL-Gap            0.1479193 Eh            4.0251 eV
             Fermi-level           -0.3392690 Eh           -9.2320 eV

     #   Z          covCN         q      C6AA      α(0)
     1   6 C        3.740    -0.109    22.663     6.792
     2   6 C        3.671     0.088    19.358     6.306
     3   8 O        1.700    -0.269    18.464     5.801
     4   6 C        2.692     0.327    21.438     7.578
     5   8 O        0.856    -0.412    21.916     6.277
     6   6 C        3.724     0.104    18.975     6.220
     7   6 C        3.743    -0.114    22.760     6.806
     8   8 O        1.652    -0.421    21.267     6.225
     9   1 H        0.922     0.062     2.180     2.309
    10   1 H        0.922     0.051     2.302     2.373
    11   1 H        0.922     0.046     2.372     2.409
    12   1 H        0.922     0.058     2.227     2.334
    13   1 H        0.921     0.051     2.303     2.373
    14   1 H        0.921     0.065     2.146     2.291
    15   1 H        0.922     0.063     2.159     2.298
    16   1 H        0.921     0.047     2.364     2.405
    17   1 H        0.921     0.057     2.240     2.341
    18   1 H        0.801     0.307     0.700     1.315

 Mol. C6AA /au·bohr⁶  :       2571.480112
 Mol. C8AA /au·bohr⁸  :      54558.540798
 Mol. α(0) /au        :         74.453436


Wiberg/Mayer (AO) data.
largest (>0.10) Wiberg bond orders for each atom

 ---------------------------------------------------------------------------
     #   Z sym  total        # sym  WBO       # sym  WBO       # sym  WBO
 ---------------------------------------------------------------------------
     1   6 C    3.991 --     2 C    1.011    10 H    0.986     9 H    0.984
                            11 H    0.984
     2   6 C    3.925 --     1 C    1.011    12 H    0.968    13 H    0.967
                             3 O    0.946
     3   8 O    2.305 --     4 C    1.120     2 C    0.946     5 O    0.176
     4   6 C    3.912 --     5 O    1.741     3 O    1.120     6 C    0.963
     5   8 O    2.015 --     4 C    1.741     3 O    0.176
     6   6 C    3.962 --     8 O    1.001     7 C    0.979     4 C    0.963
                            14 H    0.956
     7   6 C    3.990 --    16 H    0.985    17 H    0.983    15 H    0.981
                             6 C    0.979
     8   8 O    1.981 --     6 C    1.001    18 H    0.885
     9   1 H    0.996 --     1 C    0.984
    10   1 H    0.997 --     1 C    0.986
    11   1 H    0.997 --     1 C    0.984
    12   1 H    0.996 --     2 C    0.968
    13   1 H    0.997 --     2 C    0.967
    14   1 H    0.996 --     6 C    0.956
    15   1 H    0.996 --     7 C    0.981
    16   1 H    0.998 --     7 C    0.985
    17   1 H    0.997 --     7 C    0.983
    18   1 H    0.906 --     8 O    0.885
 ---------------------------------------------------------------------------

Topologies differ in total number of bonds
Writing topology from bond orders to xtbtopo.mol

molecular dipole:
                 x           y           z       tot (Debye)
 q only:        0.107       0.587      -0.019
   full:        0.167       0.706       0.133       1.874
molecular quadrupole (traceless):
                xx          xy          yy          xz          yz          zz
 q only:        7.923       0.335      -2.007      -3.469       0.254      -5.915
  q+dip:        7.331       0.664      -1.937      -4.462      -0.887      -5.394
   full:        7.204       0.373      -1.533      -4.658       0.034      -5.671


           -------------------------------------------------
          | TOTAL ENERGY              -27.994664252423 Eh   |
          | GRADIENT NORM               0.135988589215 Eh/α |
          | HOMO-LUMO GAP               4.025090288009 eV   |
           -------------------------------------------------
########################################################################
[WARNING] Runtime exception occurred
-2- restart_readRestart: Dimension missmatch in restart file.
-1- restart_readRestart: Number of electron missmatch in restart file.
########################################################################

------------------------------------------------------------------------
 unit  open   action     filename
  129 false : read       dft_tmp\16.xyz
  129 false : read       dft_tmp\16.xyz
  129 false : read       dft_tmp\16.xyz
  129 false : read       C:\Users\nkapa\Downloads\xtb-6.7.1pre-windows-x86_64\xtb-6.7.1\share\xtb\param_gfn2-xtb.txt
  129 false : read       xtbrestart
  129 false : replaced   charges
  129 false : replaced   wbo
  129 false : replaced   xtbtopo.mol
  129 false : replaced   xtbrestart

------------------------------------------------------------------------
 * finished run on 2025/06/23 at 11:31:30.574     
------------------------------------------------------------------------
 total:
 * wall-time:     0 d,  0 h,  0 min,  0.054 sec
 *  cpu-time:     0 d,  0 h,  0 min,  0.297 sec
 * ratio c/w:     5.498 speedup
 SCF:
 * wall-time:     0 d,  0 h,  0 min,  0.012 sec
 *  cpu-time:     0 d,  0 h,  0 min,  0.047 sec
 * ratio c/w:     3.906 speedup

normal termination of xtb
