18

C 2.815591 -0.416670 -0.475777
C 2.046964 0.766409 0.101379
O 0.691787 0.751733 -0.342966
C -0.276250 -0.122556 0.164636
O 0.004404 -0.917676 1.103611
C -1.669246 -0.085479 -0.398031
C -2.657538 0.495167 0.617822
O -2.070672 -1.365284 -0.818791
H 2.389569 -1.372894 -0.106905
H 2.762596 -0.397955 -1.584890
H 3.879953 -0.357535 -0.165175
H 2.523513 1.706059 -0.249087
H 2.091003 0.751099 1.212172
H -1.668893 0.578730 -1.289109
H -3.675588 0.526382 0.175048
H -2.359876 1.530119 0.891464
H -2.687316 -0.126445 1.538429
H -2.140004 -1.943204 -0.013818
