      -----------------------------------------------------------      
     |                   =====================                   |     
     |                           x T B                           |     
     |                   =====================                   |     
     |                         S. Grimme                         |     
     |          Mulliken Center for Theoretical Chemistry        |     
     |                    University of Bonn                     |     
      -----------------------------------------------------------      

   * xtb version 6.7.1pre (5071a88) compiled by 'Marcel@Raven' on 2024-07-23

   xtb is free software: you can redistribute it and/or modify it under
   the terms of the GNU Lesser General Public License as published by
   the Free Software Foundation, either version 3 of the License, or
   (at your option) any later version.
   
   xtb is distributed in the hope that it will be useful,
   but WITHOUT ANY WARRANTY; without even the implied warranty of
   MERCHANTABILITY or FITNESS FOR A PARTICULAR PURPOSE.  See the
   GNU Lesser General Public License for more details.
   
   Cite this work as:
   * C. Bannwarth, E. Caldeweyher, S. Ehlert, A. Hansen, P. Pracht,
     J. Seibert, S. Spicher, S. Grimme, WIREs Comput. Mol. Sci., 2020, 11,
     e01493. DOI: 10.1002/wcms.1493
   
   for GFN2-xTB:
   * C. Bannwarth, S. Ehlert and S. Grimme., J. Chem. Theory Comput., 2019,
     15, 1652-1671. DOI: 10.1021/acs.jctc.8b01176
   for GFN1-xTB:
   * S. Grimme, C. Bannwarth, P. Shushkov, J. Chem. Theory Comput., 2017,
     13, 1989-2009. DOI: 10.1021/acs.jctc.7b00118
   for GFN0-xTB:
   * P. Pracht, E. Caldeweyher, S. Ehlert, S. Grimme, ChemRxiv, 2019, preprint.
     DOI: 10.26434/chemrxiv.8326202.v1
   for GFN-FF:
   * S. Spicher and S. Grimme, Angew. Chem. Int. Ed., 2020, 59, 15665-15673.
     DOI: 10.1002/anie.202004239
   
   for ALPB and GBSA implicit solvation:
   * S. Ehlert, M. Stahn, S. Spicher, S. Grimme, J. Chem. Theory Comput.,
     2021, 17, 4250-4261. DOI: 10.1021/acs.jctc.1c00471
   
   for ddCOSMO and CPCM-X implicit solvation:
   * M. Stahn, S. Ehlert, S. Grimme, J. Phys. Chem. A,
     2023, XX, XXXX-XXXX. DOI: 10.1021/acs.jpca.3c04382
   
   for DFT-D4:
   * E. Caldeweyher, C. Bannwarth and S. Grimme, J. Chem. Phys., 2017,
     147, 034112. DOI: 10.1063/1.4993215
   * E. Caldeweyher, S. Ehlert, A. Hansen, H. Neugebauer, S. Spicher,
     C. Bannwarth and S. Grimme, J. Chem. Phys., 2019, 150, 154122.
     DOI: 10.1063/1.5090222
   * E. Caldeweyher, J.-M. Mewes, S. Ehlert and S. Grimme, Phys. Chem. Chem. Phys.
     2020, 22, 8499-8512. DOI: 10.1039/D0CP00502A
   
   for sTDA-xTB:
   * S. Grimme and C. Bannwarth, J. Chem. Phys., 2016, 145, 054103.
     DOI: 10.1063/1.4959605
   
   in the mass-spec context:
   * V. Asgeirsson, C. Bauer and S. Grimme, Chem. Sci., 2017, 8, 4879.
     DOI: 10.1039/c7sc00601b
   * J. Koopman and S. Grimme, ACS Omega 2019, 4, 12, 15120-15133.
     DOI: 10.1021/acsomega.9b02011
   
   for metadynamics refer to:
   * S. Grimme, J. Chem. Theory Comput., 2019, 155, 2847-2862
     DOI: 10.1021/acs.jctc.9b00143
   
   for SPH calculations refer to:
   * S. Spicher and S. Grimme, J. Chem. Theory Comput., 2021, 17, 1701-1714
     DOI: 10.1021/acs.jctc.0c01306
   
   for ONIOM refer to:
   * C. Plett, A. Katbashev, S. Ehlert, S. Grimme, M. Bursch,
     Phys. Chem. Chem. Phys., 2023, 25, 17860-17868. DOI: 10.1039/D3CP02178E
   
   for DIPRO refer to:
   * J. Kohn, N. Gildemeister, S. Grimme, D. Fazzi, A. Hansen,
     J. Chem. Phys., 2023, just accepted.
   
   for PTB refer to:
   * S. Grimme, M. Mueller, A. Hansen, J. Chem. Phys., 2023, 158, 124111.
     DOI: 10.1063/5.0137838
   
   with help from (in alphabetical order)
   P. Atkinson, C. Bannwarth, F. Bohle, G. Brandenburg, E. Caldeweyher
   M. Checinski, S. Dohm, S. Ehlert, S. Ehrlich, I. Gerasimov, C. Hölzer
   A. Katbashev, J. Kohn, J. Koopman, C. Lavigne, S. Lehtola, F. März, M. Müller,
   F. Musil, H. Neugebauer, J. Pisarek, C. Plett, P. Pracht, F. Pultar,
   J. Seibert, P. Shushkov, S. Spicher, M. Stahn, M. Steiner, T. Strunk,
   J. Stückrath, T. Rose, and J. Unsleber
   
 * started run on 2025/06/23 at 11:31:53.419     
$$$$$$$$$$$$$$$$$$$$$$$$$$$$$$$$$$$$$$$$$$$$$$$$$$$$$$$$$$$$$$$$$$$$$$$$
 CONSTRAINTS & SCANS: DEBUG SECTION
$$$$$$$$$$$$$$$$$$$$$$$$$$$$$$$$$$$$$$$$$$$$$$$$$$$$$$$$$$$$$$$$$$$$$$$$
   ID    Z sym.   atoms
    1    3 Li     1
    2    6 C      2, 13
    3    9 F      3-5, 14-16
    4   16 S      6, 10
    5    8 O      7, 8, 11, 12
    6    7 N      9
$$$$$$$$$$$$$$$$$$$$$$$$$$$$$$$$$$$$$$$$$$$$$$$$$$$$$$$$$$$$$$$$$$$$$$$$

           -------------------------------------------------
          |                Calculation Setup                |
           -------------------------------------------------

          program call               : C:\Users\nkapa\Downloads\xtb-6.7.1pre-windows-x86_64\xtb-6.7.1\bin\xtb.EXE dft_tmp\160.xyz --gfn2 --parallel 8 --verbose
          coordinate file            : dft_tmp\160.xyz
          xtbhome directory          : C:\Users\nkapa\AppData\Roaming\SPB_Data
          path for xtb               : C:\Users\nkapa\Downloads\xtb-6.7.1pre-windows-x86_64\xtb-6.7.1\share\xtb
          xcontrol input file        : dft_tmp\160.xyz
          omp threads                :                     8


           -------------------------------------------------
          |                 G F N 2 - x T B                 |
           -------------------------------------------------

        Reference                      10.1021/acs.jctc.8b01176
      * Hamiltonian:
        H0-scaling (s, p, d)           1.850000    2.230000    2.230000
        zeta-weighting                 0.500000
      * Dispersion:
        s8                             2.700000
        a1                             0.520000
        a2                             5.000000
        s9                             5.000000
      * Repulsion:
        kExp                           1.500000    1.000000
        rExp                           1.000000
      * Coulomb:
        alpha                          2.000000
        third order                    shell-resolved
        anisotropic                    true
        a3                             3.000000
        a5                             4.000000
        cn-shift                       1.200000
        cn-exp                         4.000000
        max-rad                        5.000000

q/qsh data taken from xtbrestart
CAMM data taken from xtbrestart

          ...................................................
          :                      SETUP                      :
          :.................................................:
          :  # basis functions                  76          :
          :  # atomic orbitals                  74          :
          :  # shells                           34          :
          :  # electrons                        92          :
          :  max. iterations                   250          :
          :  Hamiltonian                  GFN2-xTB          :
          :  restarted?                       true          :
          :  GBSA solvation                  false          :
          :  PC potential                    false          :
          :  electronic temp.          300.0000000     K    :
          :  accuracy                    1.0000000          :
          :  -> integral cutoff          0.2500000E+02      :
          :  -> integral neglect         0.1000000E-07      :
          :  -> SCF convergence          0.1000000E-05 Eh   :
          :  -> wf. convergence          0.1000000E-03 e    :
          :  Broyden damping             0.4000000          :
          :  net charge                          0          :
          :  unpaired electrons                  0          :
          ...................................................

 iter      E             dE          RMSdq      gap      omega  full diag
   1    -53.4400711 -0.534401E+02  0.196E+01    0.54       0.0  T
   2    -57.2761949 -0.383612E+01  0.148E+01    4.30       1.0  T
   3    -58.5134387 -0.123724E+01  0.735E+00    3.95       1.0  T
   4    -58.7315231 -0.218084E+00  0.418E+00    4.79       1.0  T
   5    -58.7605796 -0.290565E-01  0.192E+00    5.01       1.0  T
   6    -58.7668812 -0.630165E-02  0.721E-01    4.84       1.0  T
   7    -58.7676761 -0.794834E-03  0.300E-01    4.84       1.0  T
   8    -58.7678196 -0.143585E-03  0.103E-01    4.81       1.0  T
   9    -58.7678357 -0.160932E-04  0.469E-02    4.82       1.0  T
  10    -58.7678405 -0.473264E-05  0.248E-02    4.82       1.0  T
  11    -58.7678425 -0.208370E-05  0.119E-02    4.82       2.1  T
  12    -58.7678428 -0.281505E-06  0.639E-03    4.82       3.9  T
  13    -58.7678430 -0.147178E-06  0.223E-03    4.82      11.2  T
  14    -58.7678430 -0.150833E-07  0.623E-04    4.82      40.2  T
  15    -58.7678430 -0.337323E-09  0.218E-04    4.82     114.7  T

   *** convergence criteria satisfied after 15 iterations ***

         #    Occupation            Energy/Eh            Energy/eV
      -------------------------------------------------------------
         1        2.0000           -0.9619538             -26.1761
       ...           ...                  ...                  ...
        40        2.0000           -0.5164314             -14.0528
        41        2.0000           -0.5149213             -14.0117
        42        2.0000           -0.5121138             -13.9353
        43        2.0000           -0.5086678             -13.8416
        44        2.0000           -0.5034247             -13.6989
        45        2.0000           -0.4911368             -13.3645
        46        2.0000           -0.4862533             -13.2316 (HOMO)
        47                         -0.3091980              -8.4137 (LUMO)
        48                         -0.2658640              -7.2345
        49                         -0.2177208              -5.9245
        50                         -0.2108192              -5.7367
        51                         -0.1901919              -5.1754
       ...                                ...                  ...
        74                          1.4893850              40.5282
      -------------------------------------------------------------
                  HL-Gap            0.1770553 Eh            4.8179 eV
             Fermi-level           -0.3977256 Eh          -10.8227 eV

 SCC (total)                   0 d,  0 h,  0 min,  0.032 sec
 SCC setup                      ...        0 min,  0.000 sec (  0.000%)
 Dispersion                     ...        0 min,  0.001 sec (  3.125%)
 classical contributions        ...        0 min,  0.000 sec (  0.000%)
 integral evaluation            ...        0 min,  0.002 sec (  6.250%)
 iterations                     ...        0 min,  0.024 sec ( 75.000%)
 molecular gradient             ...        0 min,  0.003 sec (  9.375%)
 printout                       ...        0 min,  0.002 sec (  6.250%)

         :::::::::::::::::::::::::::::::::::::::::::::::::::::
         ::                     SUMMARY                     ::
         :::::::::::::::::::::::::::::::::::::::::::::::::::::
         :: total energy             -57.802646777052 Eh    ::
         :: gradient norm              1.652274418011 Eh/a0 ::
         :: HOMO-LUMO gap              4.817921252928 eV    ::
         ::.................................................::
         :: HOMO orbital eigv.       -13.231625864234 eV    ::
         :: LUMO orbital eigv.        -8.413704611305 eV    ::
         ::.................................................::
         :: SCC energy               -58.767792714454 Eh    ::
         :: -> isotropic ES            0.232202176860 Eh    ::
         :: -> anisotropic ES         -0.008005986814 Eh    ::
         :: -> anisotropic XC         -0.032889052828 Eh    ::
         :: -> dispersion             -0.019762466676 Eh    ::
         :: repulsion energy           0.965145937402 Eh    ::
         :: add. restraining           0.000000000000 Eh    ::
         :: total charge              -0.000000000000 e     ::
         ::.................................................::
         :: atomisation energy         2.788528173780 Eh    ::
         :::::::::::::::::::::::::::::::::::::::::::::::::::::

           -------------------------------------------------
          |                Property Printout                |
           -------------------------------------------------

    * Orbital Energies and Occupations

         #    Occupation            Energy/Eh            Energy/eV
      -------------------------------------------------------------
         1        2.0000           -0.9619538             -26.1761
       ...           ...                  ...                  ...
        34        2.0000           -0.5966642             -16.2361
        35        2.0000           -0.5822886             -15.8449
        36        2.0000           -0.5756669             -15.6647
        37        2.0000           -0.5665250             -15.4159
        38        2.0000           -0.5389692             -14.6661
        39        2.0000           -0.5350922             -14.5606
        40        2.0000           -0.5164314             -14.0528
        41        2.0000           -0.5149213             -14.0117
        42        2.0000           -0.5121138             -13.9353
        43        2.0000           -0.5086678             -13.8416
        44        2.0000           -0.5034247             -13.6989
        45        2.0000           -0.4911368             -13.3645
        46        2.0000           -0.4862533             -13.2316 (HOMO)
        47                         -0.3091980              -8.4137 (LUMO)
        48                         -0.2658640              -7.2345
        49                         -0.2177208              -5.9245
        50                         -0.2108192              -5.7367
        51                         -0.1901919              -5.1754
        52                         -0.1835454              -4.9945
        53                         -0.1769966              -4.8163
        54                         -0.1551367              -4.2215
        55                         -0.1014620              -2.7609
        56                         -0.0947639              -2.5787
        57                         -0.0683901              -1.8610
       ...                                ...                  ...
        74                          1.4893850              40.5282
      -------------------------------------------------------------
                  HL-Gap            0.1770553 Eh            4.8179 eV
             Fermi-level           -0.3977256 Eh          -10.8227 eV

     #   Z          covCN         q      C6AA      α(0)
     1   3 Li       4.483     0.816     5.004     4.108
     2   6 C        3.760     0.352    15.494     5.611
     3   9 F        0.987    -0.149    10.709     3.867
     4   9 F        0.812    -0.149    10.722     3.868
     5   9 F        0.810    -0.125    10.483     3.825
     6  16 S        4.733     1.133   102.906    17.073
     7   8 O        1.308    -0.558    24.693     6.682
     8   8 O        0.862    -0.500    23.779     6.538
     9   7 N        2.530    -0.779    43.478     9.792
    10  16 S        4.736     1.109   103.568    17.128
    11   8 O        1.201    -0.514    23.857     6.560
    12   8 O        1.521    -0.595    25.164     6.766
    13   6 C        3.490     0.373    16.509     6.051
    14   9 F        0.810    -0.128    10.516     3.831
    15   9 F        0.812    -0.151    10.736     3.871
    16   9 F        0.810    -0.137    10.601     3.846

 Mol. C6AA /au·bohr⁶  :       5739.349700
 Mol. C8AA /au·bohr⁸  :     161072.721922
 Mol. α(0) /au        :        109.417715


Wiberg/Mayer (AO) data.
largest (>0.10) Wiberg bond orders for each atom

 ---------------------------------------------------------------------------
     #   Z sym  total        # sym  WBO       # sym  WBO       # sym  WBO
 ---------------------------------------------------------------------------
     1   3 Li   0.331 --     9 N    0.245    12 O    0.124
     2   6 C    3.839 --     5 F    0.990     4 F    0.970     3 F    0.962
                             6 S    0.716
     3   9 F    1.167 --     2 C    0.962
     4   9 F    1.139 --     2 C    0.970
     5   9 F    1.146 --     2 C    0.990
     6  16 S    4.746 --     8 O    1.610     7 O    1.556     9 N    0.936
                             2 C    0.716
     7   8 O    1.927 --     6 S    1.556     8 O    0.114
     8   8 O    1.950 --     6 S    1.610     7 O    0.114
     9   7 N    2.687 --     6 S    0.936    10 S    0.935     1 Li   0.245
                            11 O    0.101    12 O    0.101
    10  16 S    4.724 --    11 O    1.606    12 O    1.501     9 N    0.935
                            13 C    0.726
    11   8 O    1.962 --    10 S    1.606    12 O    0.104     9 N    0.101
    12   8 O    1.920 --    10 S    1.501     1 Li   0.124    11 O    0.104
                             9 N    0.101
    13   6 C    3.858 --    14 F    0.987    16 F    0.981    15 F    0.967
                            10 S    0.726
    14   9 F    1.143 --    13 C    0.987
    15   9 F    1.141 --    13 C    0.967
    16   9 F    1.141 --    13 C    0.981
 ---------------------------------------------------------------------------

Topologies differ in total number of bonds
Writing topology from bond orders to xtbtopo.mol

molecular dipole:
                 x           y           z       tot (Debye)
 q only:       -0.349       1.895      -0.539
   full:       -0.455       2.140      -0.810       5.931
molecular quadrupole (traceless):
                xx          xy          yy          xz          yz          zz
 q only:        7.230       0.899      -2.625      -2.664       1.109      -4.605
  q+dip:        9.756       1.154      -2.836      -4.541       1.288      -6.920
   full:       10.884       1.145      -3.740      -2.775       0.953      -7.144


           -------------------------------------------------
          | TOTAL ENERGY              -57.802646777052 Eh   |
          | GRADIENT NORM               1.652274418011 Eh/α |
          | HOMO-LUMO GAP               4.817921252928 eV   |
           -------------------------------------------------

------------------------------------------------------------------------
 unit  open   action     filename
  129 false : read       dft_tmp\160.xyz
  129 false : read       dft_tmp\160.xyz
  129 false : read       dft_tmp\160.xyz
  129 false : read       C:\Users\nkapa\Downloads\xtb-6.7.1pre-windows-x86_64\xtb-6.7.1\share\xtb\param_gfn2-xtb.txt
  129 false : read       xtbrestart
  129 false : replaced   charges
  129 false : replaced   wbo
  129 false : replaced   xtbtopo.mol
  129 false : replaced   xtbrestart

------------------------------------------------------------------------
 * finished run on 2025/06/23 at 11:31:53.496     
------------------------------------------------------------------------
 total:
 * wall-time:     0 d,  0 h,  0 min,  0.075 sec
 *  cpu-time:     0 d,  0 h,  0 min,  0.516 sec
 * ratio c/w:     6.875 speedup
 SCF:
 * wall-time:     0 d,  0 h,  0 min,  0.032 sec
 *  cpu-time:     0 d,  0 h,  0 min,  0.250 sec
 * ratio c/w:     7.813 speedup

normal termination of xtb
