      -----------------------------------------------------------      
     |                   =====================                   |     
     |                           x T B                           |     
     |                   =====================                   |     
     |                         S. Grimme                         |     
     |          Mulliken Center for Theoretical Chemistry        |     
     |                    University of Bonn                     |     
      -----------------------------------------------------------      

   * xtb version 6.7.1pre (5071a88) compiled by 'Marcel@Raven' on 2024-07-23

   xtb is free software: you can redistribute it and/or modify it under
   the terms of the GNU Lesser General Public License as published by
   the Free Software Foundation, either version 3 of the License, or
   (at your option) any later version.
   
   xtb is distributed in the hope that it will be useful,
   but WITHOUT ANY WARRANTY; without even the implied warranty of
   MERCHANTABILITY or FITNESS FOR A PARTICULAR PURPOSE.  See the
   GNU Lesser General Public License for more details.
   
   Cite this work as:
   * C. Bannwarth, E. Caldeweyher, S. Ehlert, A. Hansen, P. Pracht,
     J. Seibert, S. Spicher, S. Grimme, WIREs Comput. Mol. Sci., 2020, 11,
     e01493. DOI: 10.1002/wcms.1493
   
   for GFN2-xTB:
   * C. Bannwarth, S. Ehlert and S. Grimme., J. Chem. Theory Comput., 2019,
     15, 1652-1671. DOI: 10.1021/acs.jctc.8b01176
   for GFN1-xTB:
   * S. Grimme, C. Bannwarth, P. Shushkov, J. Chem. Theory Comput., 2017,
     13, 1989-2009. DOI: 10.1021/acs.jctc.7b00118
   for GFN0-xTB:
   * P. Pracht, E. Caldeweyher, S. Ehlert, S. Grimme, ChemRxiv, 2019, preprint.
     DOI: 10.26434/chemrxiv.8326202.v1
   for GFN-FF:
   * S. Spicher and S. Grimme, Angew. Chem. Int. Ed., 2020, 59, 15665-15673.
     DOI: 10.1002/anie.202004239
   
   for ALPB and GBSA implicit solvation:
   * S. Ehlert, M. Stahn, S. Spicher, S. Grimme, J. Chem. Theory Comput.,
     2021, 17, 4250-4261. DOI: 10.1021/acs.jctc.1c00471
   
   for ddCOSMO and CPCM-X implicit solvation:
   * M. Stahn, S. Ehlert, S. Grimme, J. Phys. Chem. A,
     2023, XX, XXXX-XXXX. DOI: 10.1021/acs.jpca.3c04382
   
   for DFT-D4:
   * E. Caldeweyher, C. Bannwarth and S. Grimme, J. Chem. Phys., 2017,
     147, 034112. DOI: 10.1063/1.4993215
   * E. Caldeweyher, S. Ehlert, A. Hansen, H. Neugebauer, S. Spicher,
     C. Bannwarth and S. Grimme, J. Chem. Phys., 2019, 150, 154122.
     DOI: 10.1063/1.5090222
   * E. Caldeweyher, J.-M. Mewes, S. Ehlert and S. Grimme, Phys. Chem. Chem. Phys.
     2020, 22, 8499-8512. DOI: 10.1039/D0CP00502A
   
   for sTDA-xTB:
   * S. Grimme and C. Bannwarth, J. Chem. Phys., 2016, 145, 054103.
     DOI: 10.1063/1.4959605
   
   in the mass-spec context:
   * V. Asgeirsson, C. Bauer and S. Grimme, Chem. Sci., 2017, 8, 4879.
     DOI: 10.1039/c7sc00601b
   * J. Koopman and S. Grimme, ACS Omega 2019, 4, 12, 15120-15133.
     DOI: 10.1021/acsomega.9b02011
   
   for metadynamics refer to:
   * S. Grimme, J. Chem. Theory Comput., 2019, 155, 2847-2862
     DOI: 10.1021/acs.jctc.9b00143
   
   for SPH calculations refer to:
   * S. Spicher and S. Grimme, J. Chem. Theory Comput., 2021, 17, 1701-1714
     DOI: 10.1021/acs.jctc.0c01306
   
   for ONIOM refer to:
   * C. Plett, A. Katbashev, S. Ehlert, S. Grimme, M. Bursch,
     Phys. Chem. Chem. Phys., 2023, 25, 17860-17868. DOI: 10.1039/D3CP02178E
   
   for DIPRO refer to:
   * J. Kohn, N. Gildemeister, S. Grimme, D. Fazzi, A. Hansen,
     J. Chem. Phys., 2023, just accepted.
   
   for PTB refer to:
   * S. Grimme, M. Mueller, A. Hansen, J. Chem. Phys., 2023, 158, 124111.
     DOI: 10.1063/5.0137838
   
   with help from (in alphabetical order)
   P. Atkinson, C. Bannwarth, F. Bohle, G. Brandenburg, E. Caldeweyher
   M. Checinski, S. Dohm, S. Ehlert, S. Ehrlich, I. Gerasimov, C. Hölzer
   A. Katbashev, J. Kohn, J. Koopman, C. Lavigne, S. Lehtola, F. März, M. Müller,
   F. Musil, H. Neugebauer, J. Pisarek, C. Plett, P. Pracht, F. Pultar,
   J. Seibert, P. Shushkov, S. Spicher, M. Stahn, M. Steiner, T. Strunk,
   J. Stückrath, T. Rose, and J. Unsleber
   
 * started run on 2025/06/23 at 11:31:55.564     
$$$$$$$$$$$$$$$$$$$$$$$$$$$$$$$$$$$$$$$$$$$$$$$$$$$$$$$$$$$$$$$$$$$$$$$$
 CONSTRAINTS & SCANS: DEBUG SECTION
$$$$$$$$$$$$$$$$$$$$$$$$$$$$$$$$$$$$$$$$$$$$$$$$$$$$$$$$$$$$$$$$$$$$$$$$
   ID    Z sym.   atoms
    1    3 Li     1
    2    6 C      2, 13
    3    9 F      3-5, 14-16
    4   16 S      6, 10
    5    8 O      7, 8, 11, 12
    6    7 N      9
$$$$$$$$$$$$$$$$$$$$$$$$$$$$$$$$$$$$$$$$$$$$$$$$$$$$$$$$$$$$$$$$$$$$$$$$

           -------------------------------------------------
          |                Calculation Setup                |
           -------------------------------------------------

          program call               : C:\Users\nkapa\Downloads\xtb-6.7.1pre-windows-x86_64\xtb-6.7.1\bin\xtb.EXE dft_tmp\172.xyz --gfn2 --parallel 8 --verbose
          coordinate file            : dft_tmp\172.xyz
          xtbhome directory          : C:\Users\nkapa\AppData\Roaming\SPB_Data
          path for xtb               : C:\Users\nkapa\Downloads\xtb-6.7.1pre-windows-x86_64\xtb-6.7.1\share\xtb
          xcontrol input file        : dft_tmp\172.xyz
          omp threads                :                     8


           -------------------------------------------------
          |                 G F N 2 - x T B                 |
           -------------------------------------------------

        Reference                      10.1021/acs.jctc.8b01176
      * Hamiltonian:
        H0-scaling (s, p, d)           1.850000    2.230000    2.230000
        zeta-weighting                 0.500000
      * Dispersion:
        s8                             2.700000
        a1                             0.520000
        a2                             5.000000
        s9                             5.000000
      * Repulsion:
        kExp                           1.500000    1.000000
        rExp                           1.000000
      * Coulomb:
        alpha                          2.000000
        third order                    shell-resolved
        anisotropic                    true
        a3                             3.000000
        a5                             4.000000
        cn-shift                       1.200000
        cn-exp                         4.000000
        max-rad                        5.000000


          ...................................................
          :                      SETUP                      :
          :.................................................:
          :  # basis functions                  76          :
          :  # atomic orbitals                  74          :
          :  # shells                           34          :
          :  # electrons                        92          :
          :  max. iterations                   250          :
          :  Hamiltonian                  GFN2-xTB          :
          :  restarted?                      false          :
          :  GBSA solvation                  false          :
          :  PC potential                    false          :
          :  electronic temp.          300.0000000     K    :
          :  accuracy                    1.0000000          :
          :  -> integral cutoff          0.2500000E+02      :
          :  -> integral neglect         0.1000000E-07      :
          :  -> SCF convergence          0.1000000E-05 Eh   :
          :  -> wf. convergence          0.1000000E-03 e    :
          :  Broyden damping             0.4000000          :
          :  net charge                          0          :
          :  unpaired electrons                  0          :
          ...................................................

 iter      E             dE          RMSdq      gap      omega  full diag
   1    -58.4386721 -0.584387E+02  0.102E+01    4.46       0.0  T
   2    -58.7161580 -0.277486E+00  0.664E+00    4.51       1.0  T
   3    -58.7557256 -0.395676E-01  0.331E+00    4.84       1.0  T
   4    -58.7665977 -0.108721E-01  0.786E-01    4.79       1.0  T
   5    -58.7672779 -0.680210E-03  0.429E-01    4.81       1.0  T
   6    -58.7677357 -0.457731E-03  0.172E-01    4.81       1.0  T
   7    -58.7678075 -0.718031E-04  0.952E-02    4.83       1.0  T
   8    -58.7678398 -0.323546E-04  0.317E-02    4.81       1.0  T
   9    -58.7678427 -0.290912E-05  0.130E-02    4.82       1.9  T
  10    -58.7678430 -0.245966E-06  0.339E-03    4.82       7.4  T
  11    -58.7678430 -0.589208E-08  0.139E-03    4.82      18.0  T
  12    -58.7678430 -0.818368E-08  0.718E-04    4.82      34.8  T
  13    -58.7678430 -0.781817E-09  0.296E-04    4.82      84.4  T

   *** convergence criteria satisfied after 13 iterations ***

         #    Occupation            Energy/Eh            Energy/eV
      -------------------------------------------------------------
         1        2.0000           -0.9619562             -26.1762
       ...           ...                  ...                  ...
        40        2.0000           -0.5164290             -14.0527
        41        2.0000           -0.5149193             -14.0117
        42        2.0000           -0.5121125             -13.9353
        43        2.0000           -0.5086658             -13.8415
        44        2.0000           -0.5034243             -13.6989
        45        2.0000           -0.4911330             -13.3644
        46        2.0000           -0.4862558             -13.2317 (HOMO)
        47                         -0.3091995              -8.4137 (LUMO)
        48                         -0.2658654              -7.2346
        49                         -0.2177217              -5.9245
        50                         -0.2108199              -5.7367
        51                         -0.1901929              -5.1754
       ...                                ...                  ...
        74                          1.4893825              40.5282
      -------------------------------------------------------------
                  HL-Gap            0.1770563 Eh            4.8179 eV
             Fermi-level           -0.3977277 Eh          -10.8227 eV

 SCC (total)                   0 d,  0 h,  0 min,  0.029 sec
 SCC setup                      ...        0 min,  0.001 sec (  3.448%)
 Dispersion                     ...        0 min,  0.000 sec (  0.000%)
 classical contributions        ...        0 min,  0.000 sec (  0.000%)
 integral evaluation            ...        0 min,  0.003 sec ( 10.345%)
 iterations                     ...        0 min,  0.021 sec ( 72.414%)
 molecular gradient             ...        0 min,  0.004 sec ( 13.793%)
 printout                       ...        0 min,  0.000 sec (  0.000%)

         :::::::::::::::::::::::::::::::::::::::::::::::::::::
         ::                     SUMMARY                     ::
         :::::::::::::::::::::::::::::::::::::::::::::::::::::
         :: total energy             -57.802646776744 Eh    ::
         :: gradient norm              1.652278498721 Eh/a0 ::
         :: HOMO-LUMO gap              4.817948104709 eV    ::
         ::.................................................::
         :: HOMO orbital eigv.       -13.231694999978 eV    ::
         :: LUMO orbital eigv.        -8.413746895269 eV    ::
         ::.................................................::
         :: SCC energy               -58.767792714146 Eh    ::
         :: -> isotropic ES            0.232185813399 Eh    ::
         :: -> anisotropic ES         -0.008005710848 Eh    ::
         :: -> anisotropic XC         -0.032889464510 Eh    ::
         :: -> dispersion             -0.019762456949 Eh    ::
         :: repulsion energy           0.965145937402 Eh    ::
         :: add. restraining           0.000000000000 Eh    ::
         :: total charge              -0.000000000000 e     ::
         ::.................................................::
         :: atomisation energy         2.788528173472 Eh    ::
         :::::::::::::::::::::::::::::::::::::::::::::::::::::

           -------------------------------------------------
          |                Property Printout                |
           -------------------------------------------------

    * Orbital Energies and Occupations

         #    Occupation            Energy/Eh            Energy/eV
      -------------------------------------------------------------
         1        2.0000           -0.9619562             -26.1762
       ...           ...                  ...                  ...
        34        2.0000           -0.5966645             -16.2361
        35        2.0000           -0.5822884             -15.8449
        36        2.0000           -0.5756653             -15.6647
        37        2.0000           -0.5665248             -15.4159
        38        2.0000           -0.5389685             -14.6661
        39        2.0000           -0.5350914             -14.5606
        40        2.0000           -0.5164290             -14.0527
        41        2.0000           -0.5149193             -14.0117
        42        2.0000           -0.5121125             -13.9353
        43        2.0000           -0.5086658             -13.8415
        44        2.0000           -0.5034243             -13.6989
        45        2.0000           -0.4911330             -13.3644
        46        2.0000           -0.4862558             -13.2317 (HOMO)
        47                         -0.3091995              -8.4137 (LUMO)
        48                         -0.2658654              -7.2346
        49                         -0.2177217              -5.9245
        50                         -0.2108199              -5.7367
        51                         -0.1901929              -5.1754
        52                         -0.1835467              -4.9946
        53                         -0.1769974              -4.8163
        54                         -0.1551378              -4.2215
        55                         -0.1014646              -2.7610
        56                         -0.0947672              -2.5787
        57                         -0.0683922              -1.8610
       ...                                ...                  ...
        74                          1.4893825              40.5282
      -------------------------------------------------------------
                  HL-Gap            0.1770563 Eh            4.8179 eV
             Fermi-level           -0.3977277 Eh          -10.8227 eV

     #   Z          covCN         q      C6AA      α(0)
     1   3 Li       4.483     0.816     5.004     4.108
     2   6 C        3.760     0.352    15.494     5.611
     3   9 F        0.987    -0.149    10.709     3.867
     4   9 F        0.812    -0.149    10.722     3.868
     5   9 F        0.810    -0.125    10.483     3.825
     6  16 S        4.733     1.133   102.906    17.074
     7   8 O        1.308    -0.558    24.692     6.682
     8   8 O        0.862    -0.500    23.779     6.538
     9   7 N        2.530    -0.779    43.478     9.792
    10  16 S        4.736     1.109   103.568    17.128
    11   8 O        1.201    -0.514    23.857     6.560
    12   8 O        1.521    -0.595    25.164     6.766
    13   6 C        3.490     0.373    16.509     6.051
    14   9 F        0.810    -0.128    10.516     3.831
    15   9 F        0.812    -0.151    10.736     3.871
    16   9 F        0.810    -0.137    10.601     3.846

 Mol. C6AA /au·bohr⁶  :       5739.346173
 Mol. C8AA /au·bohr⁸  :     161072.698233
 Mol. α(0) /au        :        109.417694


Wiberg/Mayer (AO) data.
largest (>0.10) Wiberg bond orders for each atom

 ---------------------------------------------------------------------------
     #   Z sym  total        # sym  WBO       # sym  WBO       # sym  WBO
 ---------------------------------------------------------------------------
     1   3 Li   0.331 --     9 N    0.245    12 O    0.124
     2   6 C    3.839 --     5 F    0.990     4 F    0.970     3 F    0.962
                             6 S    0.716
     3   9 F    1.167 --     2 C    0.962
     4   9 F    1.139 --     2 C    0.970
     5   9 F    1.146 --     2 C    0.990
     6  16 S    4.746 --     8 O    1.610     7 O    1.557     9 N    0.936
                             2 C    0.716
     7   8 O    1.927 --     6 S    1.557     8 O    0.114
     8   8 O    1.950 --     6 S    1.610     7 O    0.114
     9   7 N    2.687 --     6 S    0.936    10 S    0.935     1 Li   0.245
                            11 O    0.101    12 O    0.101
    10  16 S    4.724 --    11 O    1.606    12 O    1.501     9 N    0.935
                            13 C    0.726
    11   8 O    1.962 --    10 S    1.606    12 O    0.104     9 N    0.101
    12   8 O    1.920 --    10 S    1.501     1 Li   0.124    11 O    0.104
                             9 N    0.101
    13   6 C    3.858 --    14 F    0.987    16 F    0.981    15 F    0.967
                            10 S    0.726
    14   9 F    1.143 --    13 C    0.987
    15   9 F    1.141 --    13 C    0.967
    16   9 F    1.141 --    13 C    0.981
 ---------------------------------------------------------------------------

Topologies differ in total number of bonds
Writing topology from bond orders to xtbtopo.mol

molecular dipole:
                 x           y           z       tot (Debye)
 q only:       -0.349       1.895      -0.539
   full:       -0.455       2.140      -0.810       5.931
molecular quadrupole (traceless):
                xx          xy          yy          xz          yz          zz
 q only:        7.230       0.899      -2.625      -2.664       1.109      -4.605
  q+dip:        9.756       1.154      -2.836      -4.541       1.288      -6.920
   full:       10.884       1.145      -3.740      -2.775       0.953      -7.144


           -------------------------------------------------
          | TOTAL ENERGY              -57.802646776744 Eh   |
          | GRADIENT NORM               1.652278498721 Eh/α |
          | HOMO-LUMO GAP               4.817948104709 eV   |
           -------------------------------------------------
########################################################################
[WARNING] Runtime exception occurred
-2- restart_readRestart: Dimension missmatch in restart file.
-1- restart_readRestart: Number of electron missmatch in restart file.
########################################################################

------------------------------------------------------------------------
 unit  open   action     filename
  129 false : read       dft_tmp\172.xyz
  129 false : read       dft_tmp\172.xyz
  129 false : read       dft_tmp\172.xyz
  129 false : read       C:\Users\nkapa\Downloads\xtb-6.7.1pre-windows-x86_64\xtb-6.7.1\share\xtb\param_gfn2-xtb.txt
  129 false : read       xtbrestart
  129 false : replaced   charges
  129 false : replaced   wbo
  129 false : replaced   xtbtopo.mol
  129 false : replaced   xtbrestart

------------------------------------------------------------------------
 * finished run on 2025/06/23 at 11:31:55.634     
------------------------------------------------------------------------
 total:
 * wall-time:     0 d,  0 h,  0 min,  0.069 sec
 *  cpu-time:     0 d,  0 h,  0 min,  0.500 sec
 * ratio c/w:     7.246 speedup
 SCF:
 * wall-time:     0 d,  0 h,  0 min,  0.029 sec
 *  cpu-time:     0 d,  0 h,  0 min,  0.250 sec
 * ratio c/w:     8.621 speedup

normal termination of xtb
