      -----------------------------------------------------------      
     |                   =====================                   |     
     |                           x T B                           |     
     |                   =====================                   |     
     |                         S. Grimme                         |     
     |          Mulliken Center for Theoretical Chemistry        |     
     |                    University of Bonn                     |     
      -----------------------------------------------------------      

   * xtb version 6.7.1pre (5071a88) compiled by 'Marcel@Raven' on 2024-07-23

   xtb is free software: you can redistribute it and/or modify it under
   the terms of the GNU Lesser General Public License as published by
   the Free Software Foundation, either version 3 of the License, or
   (at your option) any later version.
   
   xtb is distributed in the hope that it will be useful,
   but WITHOUT ANY WARRANTY; without even the implied warranty of
   MERCHANTABILITY or FITNESS FOR A PARTICULAR PURPOSE.  See the
   GNU Lesser General Public License for more details.
   
   Cite this work as:
   * C. Bannwarth, E. Caldeweyher, S. Ehlert, A. Hansen, P. Pracht,
     J. Seibert, S. Spicher, S. Grimme, WIREs Comput. Mol. Sci., 2020, 11,
     e01493. DOI: 10.1002/wcms.1493
   
   for GFN2-xTB:
   * C. Bannwarth, S. Ehlert and S. Grimme., J. Chem. Theory Comput., 2019,
     15, 1652-1671. DOI: 10.1021/acs.jctc.8b01176
   for GFN1-xTB:
   * S. Grimme, C. Bannwarth, P. Shushkov, J. Chem. Theory Comput., 2017,
     13, 1989-2009. DOI: 10.1021/acs.jctc.7b00118
   for GFN0-xTB:
   * P. Pracht, E. Caldeweyher, S. Ehlert, S. Grimme, ChemRxiv, 2019, preprint.
     DOI: 10.26434/chemrxiv.8326202.v1
   for GFN-FF:
   * S. Spicher and S. Grimme, Angew. Chem. Int. Ed., 2020, 59, 15665-15673.
     DOI: 10.1002/anie.202004239
   
   for ALPB and GBSA implicit solvation:
   * S. Ehlert, M. Stahn, S. Spicher, S. Grimme, J. Chem. Theory Comput.,
     2021, 17, 4250-4261. DOI: 10.1021/acs.jctc.1c00471
   
   for ddCOSMO and CPCM-X implicit solvation:
   * M. Stahn, S. Ehlert, S. Grimme, J. Phys. Chem. A,
     2023, XX, XXXX-XXXX. DOI: 10.1021/acs.jpca.3c04382
   
   for DFT-D4:
   * E. Caldeweyher, C. Bannwarth and S. Grimme, J. Chem. Phys., 2017,
     147, 034112. DOI: 10.1063/1.4993215
   * E. Caldeweyher, S. Ehlert, A. Hansen, H. Neugebauer, S. Spicher,
     C. Bannwarth and S. Grimme, J. Chem. Phys., 2019, 150, 154122.
     DOI: 10.1063/1.5090222
   * E. Caldeweyher, J.-M. Mewes, S. Ehlert and S. Grimme, Phys. Chem. Chem. Phys.
     2020, 22, 8499-8512. DOI: 10.1039/D0CP00502A
   
   for sTDA-xTB:
   * S. Grimme and C. Bannwarth, J. Chem. Phys., 2016, 145, 054103.
     DOI: 10.1063/1.4959605
   
   in the mass-spec context:
   * V. Asgeirsson, C. Bauer and S. Grimme, Chem. Sci., 2017, 8, 4879.
     DOI: 10.1039/c7sc00601b
   * J. Koopman and S. Grimme, ACS Omega 2019, 4, 12, 15120-15133.
     DOI: 10.1021/acsomega.9b02011
   
   for metadynamics refer to:
   * S. Grimme, J. Chem. Theory Comput., 2019, 155, 2847-2862
     DOI: 10.1021/acs.jctc.9b00143
   
   for SPH calculations refer to:
   * S. Spicher and S. Grimme, J. Chem. Theory Comput., 2021, 17, 1701-1714
     DOI: 10.1021/acs.jctc.0c01306
   
   for ONIOM refer to:
   * C. Plett, A. Katbashev, S. Ehlert, S. Grimme, M. Bursch,
     Phys. Chem. Chem. Phys., 2023, 25, 17860-17868. DOI: 10.1039/D3CP02178E
   
   for DIPRO refer to:
   * J. Kohn, N. Gildemeister, S. Grimme, D. Fazzi, A. Hansen,
     J. Chem. Phys., 2023, just accepted.
   
   for PTB refer to:
   * S. Grimme, M. Mueller, A. Hansen, J. Chem. Phys., 2023, 158, 124111.
     DOI: 10.1063/5.0137838
   
   with help from (in alphabetical order)
   P. Atkinson, C. Bannwarth, F. Bohle, G. Brandenburg, E. Caldeweyher
   M. Checinski, S. Dohm, S. Ehlert, S. Ehrlich, I. Gerasimov, C. Hölzer
   A. Katbashev, J. Kohn, J. Koopman, C. Lavigne, S. Lehtola, F. März, M. Müller,
   F. Musil, H. Neugebauer, J. Pisarek, C. Plett, P. Pracht, F. Pultar,
   J. Seibert, P. Shushkov, S. Spicher, M. Stahn, M. Steiner, T. Strunk,
   J. Stückrath, T. Rose, and J. Unsleber
   
 * started run on 2025/06/23 at 11:31:55.877     
$$$$$$$$$$$$$$$$$$$$$$$$$$$$$$$$$$$$$$$$$$$$$$$$$$$$$$$$$$$$$$$$$$$$$$$$
 CONSTRAINTS & SCANS: DEBUG SECTION
$$$$$$$$$$$$$$$$$$$$$$$$$$$$$$$$$$$$$$$$$$$$$$$$$$$$$$$$$$$$$$$$$$$$$$$$
   ID    Z sym.   atoms
    1    8 O      1, 3-5, 7-9
    2   15 P      2, 6
$$$$$$$$$$$$$$$$$$$$$$$$$$$$$$$$$$$$$$$$$$$$$$$$$$$$$$$$$$$$$$$$$$$$$$$$

           -------------------------------------------------
          |                Calculation Setup                |
           -------------------------------------------------

          program call               : C:\Users\nkapa\Downloads\xtb-6.7.1pre-windows-x86_64\xtb-6.7.1\bin\xtb.EXE dft_tmp\174.xyz --gfn2 --parallel 8 --verbose --chrg -4
          coordinate file            : dft_tmp\174.xyz
          xtbhome directory          : C:\Users\nkapa\AppData\Roaming\SPB_Data
          path for xtb               : C:\Users\nkapa\Downloads\xtb-6.7.1pre-windows-x86_64\xtb-6.7.1\share\xtb
          xcontrol input file        : dft_tmp\174.xyz
          omp threads                :                     8


           -------------------------------------------------
          |                 G F N 2 - x T B                 |
           -------------------------------------------------

        Reference                      10.1021/acs.jctc.8b01176
      * Hamiltonian:
        H0-scaling (s, p, d)           1.850000    2.230000    2.230000
        zeta-weighting                 0.500000
      * Dispersion:
        s8                             2.700000
        a1                             0.520000
        a2                             5.000000
        s9                             5.000000
      * Repulsion:
        kExp                           1.500000    1.000000
        rExp                           1.000000
      * Coulomb:
        alpha                          2.000000
        third order                    shell-resolved
        anisotropic                    true
        a3                             3.000000
        a5                             4.000000
        cn-shift                       1.200000
        cn-exp                         4.000000
        max-rad                        5.000000


          ...................................................
          :                      SETUP                      :
          :.................................................:
          :  # basis functions                  48          :
          :  # atomic orbitals                  46          :
          :  # shells                           20          :
          :  # electrons                        56          :
          :  max. iterations                   250          :
          :  Hamiltonian                  GFN2-xTB          :
          :  restarted?                      false          :
          :  GBSA solvation                  false          :
          :  PC potential                    false          :
          :  electronic temp.          300.0000000     K    :
          :  accuracy                    1.0000000          :
          :  -> integral cutoff          0.2500000E+02      :
          :  -> integral neglect         0.1000000E-07      :
          :  -> SCF convergence          0.1000000E-05 Eh   :
          :  -> wf. convergence          0.1000000E-03 e    :
          :  Broyden damping             0.4000000          :
          :  net charge                         -4          :
          :  unpaired electrons                  0          :
          ...................................................

 iter      E             dE          RMSdq      gap      omega  full diag
   1    -33.7744168 -0.337744E+02  0.129E+01    7.79       0.0  T
   2    -33.8488395 -0.744228E-01  0.767E+00    6.59       1.0  T
   3    -33.8707425 -0.219029E-01  0.210E+00    6.08       1.0  T
   4    -33.8741459 -0.340346E-02  0.118E+00    6.10       1.0  T
   5    -33.8755600 -0.141405E-02  0.512E-01    6.19       1.0  T
   6    -33.8759067 -0.346706E-03  0.262E-01    6.16       1.0  T
   7    -33.8760213 -0.114622E-03  0.924E-02    6.18       1.0  T
   8    -33.8760284 -0.708149E-05  0.240E-02    6.18       1.4  T
   9    -33.8760289 -0.512695E-06  0.537E-03    6.18       6.2  T
  10    -33.8760289  0.446178E-09  0.251E-03    6.18      13.3  T
  11    -33.8760289 -0.109776E-07  0.279E-04    6.18     119.5  T
  12    -33.8760289 -0.593374E-10  0.106E-04    6.18     315.6  T

   *** convergence criteria satisfied after 12 iterations ***

         #    Occupation            Energy/Eh            Energy/eV
      -------------------------------------------------------------
         1        2.0000           -0.0437144              -1.1895
       ...           ...                  ...                  ...
        22        2.0000            0.2529034               6.8819
        23        2.0000            0.2601435               7.0789
        24        2.0000            0.2654823               7.2241
        25        2.0000            0.2762468               7.5171
        26        2.0000            0.2818405               7.6693
        27        2.0000            0.2821924               7.6788
        28        2.0000            0.2920663               7.9475 (HOMO)
        29                          0.5192271              14.1289 (LUMO)
        30                          0.5803978              15.7934
        31                          0.5978337              16.2679
        32                          0.6358151              17.3014
        33                          0.6372429              17.3403
       ...                                ...                  ...
        46                          1.8297377              49.7897
      -------------------------------------------------------------
                  HL-Gap            0.2271608 Eh            6.1814 eV
             Fermi-level            0.4056467 Eh           11.0382 eV

 SCC (total)                   0 d,  0 h,  0 min,  0.017 sec
 SCC setup                      ...        0 min,  0.001 sec (  5.883%)
 Dispersion                     ...        0 min,  0.000 sec (  0.000%)
 classical contributions        ...        0 min,  0.000 sec (  0.000%)
 integral evaluation            ...        0 min,  0.002 sec ( 11.764%)
 iterations                     ...        0 min,  0.011 sec ( 64.706%)
 molecular gradient             ...        0 min,  0.003 sec ( 17.647%)
 printout                       ...        0 min,  0.000 sec (  0.000%)

         :::::::::::::::::::::::::::::::::::::::::::::::::::::
         ::                     SUMMARY                     ::
         :::::::::::::::::::::::::::::::::::::::::::::::::::::
         :: total energy             -33.810461885095 Eh    ::
         :: gradient norm              0.208303852558 Eh/a0 ::
         :: HOMO-LUMO gap              6.181358651315 eV    ::
         ::.................................................::
         :: HOMO orbital eigv.         7.947529849751 eV    ::
         :: LUMO orbital eigv.        14.128888501066 eV    ::
         ::.................................................::
         :: SCC energy               -33.876019808776 Eh    ::
         :: -> isotropic ES            1.698057230737 Eh    ::
         :: -> anisotropic ES         -0.063285558689 Eh    ::
         :: -> anisotropic XC          0.008327581460 Eh    ::
         :: -> dispersion             -0.012570777634 Eh    ::
         :: repulsion energy           0.065557923682 Eh    ::
         :: add. restraining           0.000000000000 Eh    ::
         :: total charge              -4.000000000000 e     ::
         ::.................................................::
         :: atomisation energy         2.986623463831 Eh    ::
         :::::::::::::::::::::::::::::::::::::::::::::::::::::

           -------------------------------------------------
          |                Property Printout                |
           -------------------------------------------------

    * Orbital Energies and Occupations

         #    Occupation            Energy/Eh            Energy/eV
      -------------------------------------------------------------
         1        2.0000           -0.0437144              -1.1895
       ...           ...                  ...                  ...
        16        2.0000            0.2006239               5.4593
        17        2.0000            0.2262303               6.1560
        18        2.0000            0.2304365               6.2705
        19        2.0000            0.2367223               6.4415
        20        2.0000            0.2392020               6.5090
        21        2.0000            0.2493406               6.7849
        22        2.0000            0.2529034               6.8819
        23        2.0000            0.2601435               7.0789
        24        2.0000            0.2654823               7.2241
        25        2.0000            0.2762468               7.5171
        26        2.0000            0.2818405               7.6693
        27        2.0000            0.2821924               7.6788
        28        2.0000            0.2920663               7.9475 (HOMO)
        29                          0.5192271              14.1289 (LUMO)
        30                          0.5803978              15.7934
        31                          0.5978337              16.2679
        32                          0.6358151              17.3014
        33                          0.6372429              17.3403
        34                          0.6491062              17.6631
        35                          0.7000417              19.0491
        36                          0.7336721              19.9642
        37                          0.9225168              25.1030
        38                          0.9365219              25.4841
        39                          0.9694620              26.3804
       ...                                ...                  ...
        46                          1.8297377              49.7897
      -------------------------------------------------------------
                  HL-Gap            0.2271608 Eh            6.1814 eV
             Fermi-level            0.4056467 Eh           11.0382 eV

     #   Z          covCN         q      C6AA      α(0)
     1   8 O        0.808    -0.516    24.178     6.591
     2  15 P        3.954    -0.018   161.005    22.793
     3   8 O        0.806    -0.627    26.817     6.942
     4   8 O        0.806    -0.723    29.375     7.265
     5   8 O        1.612    -0.233    17.894     5.709
     6  15 P        3.954    -0.018   161.005    22.793
     7   8 O        0.808    -0.516    24.178     6.591
     8   8 O        0.806    -0.723    29.375     7.265
     9   8 O        0.806    -0.627    26.817     6.942

 Mol. C6AA /au·bohr⁶  :       3597.262723
 Mol. C8AA /au·bohr⁸  :     117942.766610
 Mol. α(0) /au        :         92.892257


Wiberg/Mayer (AO) data.
largest (>0.10) Wiberg bond orders for each atom

 ---------------------------------------------------------------------------
     #   Z sym  total        # sym  WBO       # sym  WBO       # sym  WBO
 ---------------------------------------------------------------------------
     1   8 O    2.067 --     2 P    1.828
     2  15 P    6.082 --     1 O    1.828     3 O    1.606     4 O    1.519
                             5 O    1.057
     3   8 O    1.853 --     2 P    1.606
     4   8 O    1.752 --     2 P    1.519
     5   8 O    2.473 --     6 P    1.057     2 P    1.057
     6  15 P    6.082 --     7 O    1.828     9 O    1.606     8 O    1.519
                             5 O    1.057
     7   8 O    2.067 --     6 P    1.828
     8   8 O    1.752 --     6 P    1.519
     9   8 O    1.853 --     6 P    1.606
 ---------------------------------------------------------------------------

Topologies differ in total number of bonds
Writing topology from bond orders to xtbtopo.mol

molecular dipole:
                 x           y           z       tot (Debye)
 q only:        0.245      -0.524      -0.382
   full:        0.292      -0.475      -0.838       2.559
molecular quadrupole (traceless):
                xx          xy          yy          xz          yz          zz
 q only:      -34.027     -19.648      14.019      -6.763      -5.614      20.008
  q+dip:      -38.532     -22.215      15.566      -7.886      -5.861      22.966
   full:      -36.485     -20.763      14.309      -7.326      -6.057      22.176


           -------------------------------------------------
          | TOTAL ENERGY              -33.810461885095 Eh   |
          | GRADIENT NORM               0.208303852558 Eh/α |
          | HOMO-LUMO GAP               6.181358651315 eV   |
           -------------------------------------------------
########################################################################
[WARNING] Runtime exception occurred
-2- restart_readRestart: Dimension missmatch in restart file.
-1- restart_readRestart: Number of electron missmatch in restart file.
########################################################################

------------------------------------------------------------------------
 unit  open   action     filename
  129 false : read       dft_tmp\174.xyz
  129 false : read       dft_tmp\174.xyz
  129 false : read       dft_tmp\174.xyz
  129 false : read       C:\Users\nkapa\Downloads\xtb-6.7.1pre-windows-x86_64\xtb-6.7.1\share\xtb\param_gfn2-xtb.txt
  129 false : read       xtbrestart
  129 false : replaced   charges
  129 false : replaced   wbo
  129 false : replaced   xtbtopo.mol
  129 false : replaced   xtbrestart

------------------------------------------------------------------------
 * finished run on 2025/06/23 at 11:31:55.944     
------------------------------------------------------------------------
 total:
 * wall-time:     0 d,  0 h,  0 min,  0.065 sec
 *  cpu-time:     0 d,  0 h,  0 min,  0.219 sec
 * ratio c/w:     3.365 speedup
 SCF:
 * wall-time:     0 d,  0 h,  0 min,  0.017 sec
 *  cpu-time:     0 d,  0 h,  0 min,  0.125 sec
 * ratio c/w:     7.353 speedup

normal termination of xtb
