      -----------------------------------------------------------      
     |                   =====================                   |     
     |                           x T B                           |     
     |                   =====================                   |     
     |                         S. Grimme                         |     
     |          Mulliken Center for Theoretical Chemistry        |     
     |                    University of Bonn                     |     
      -----------------------------------------------------------      

   * xtb version 6.7.1pre (5071a88) compiled by 'Marcel@Raven' on 2024-07-23

   xtb is free software: you can redistribute it and/or modify it under
   the terms of the GNU Lesser General Public License as published by
   the Free Software Foundation, either version 3 of the License, or
   (at your option) any later version.
   
   xtb is distributed in the hope that it will be useful,
   but WITHOUT ANY WARRANTY; without even the implied warranty of
   MERCHANTABILITY or FITNESS FOR A PARTICULAR PURPOSE.  See the
   GNU Lesser General Public License for more details.
   
   Cite this work as:
   * C. Bannwarth, E. Caldeweyher, S. Ehlert, A. Hansen, P. Pracht,
     J. Seibert, S. Spicher, S. Grimme, WIREs Comput. Mol. Sci., 2020, 11,
     e01493. DOI: 10.1002/wcms.1493
   
   for GFN2-xTB:
   * C. Bannwarth, S. Ehlert and S. Grimme., J. Chem. Theory Comput., 2019,
     15, 1652-1671. DOI: 10.1021/acs.jctc.8b01176
   for GFN1-xTB:
   * S. Grimme, C. Bannwarth, P. Shushkov, J. Chem. Theory Comput., 2017,
     13, 1989-2009. DOI: 10.1021/acs.jctc.7b00118
   for GFN0-xTB:
   * P. Pracht, E. Caldeweyher, S. Ehlert, S. Grimme, ChemRxiv, 2019, preprint.
     DOI: 10.26434/chemrxiv.8326202.v1
   for GFN-FF:
   * S. Spicher and S. Grimme, Angew. Chem. Int. Ed., 2020, 59, 15665-15673.
     DOI: 10.1002/anie.202004239
   
   for ALPB and GBSA implicit solvation:
   * S. Ehlert, M. Stahn, S. Spicher, S. Grimme, J. Chem. Theory Comput.,
     2021, 17, 4250-4261. DOI: 10.1021/acs.jctc.1c00471
   
   for ddCOSMO and CPCM-X implicit solvation:
   * M. Stahn, S. Ehlert, S. Grimme, J. Phys. Chem. A,
     2023, XX, XXXX-XXXX. DOI: 10.1021/acs.jpca.3c04382
   
   for DFT-D4:
   * E. Caldeweyher, C. Bannwarth and S. Grimme, J. Chem. Phys., 2017,
     147, 034112. DOI: 10.1063/1.4993215
   * E. Caldeweyher, S. Ehlert, A. Hansen, H. Neugebauer, S. Spicher,
     C. Bannwarth and S. Grimme, J. Chem. Phys., 2019, 150, 154122.
     DOI: 10.1063/1.5090222
   * E. Caldeweyher, J.-M. Mewes, S. Ehlert and S. Grimme, Phys. Chem. Chem. Phys.
     2020, 22, 8499-8512. DOI: 10.1039/D0CP00502A
   
   for sTDA-xTB:
   * S. Grimme and C. Bannwarth, J. Chem. Phys., 2016, 145, 054103.
     DOI: 10.1063/1.4959605
   
   in the mass-spec context:
   * V. Asgeirsson, C. Bauer and S. Grimme, Chem. Sci., 2017, 8, 4879.
     DOI: 10.1039/c7sc00601b
   * J. Koopman and S. Grimme, ACS Omega 2019, 4, 12, 15120-15133.
     DOI: 10.1021/acsomega.9b02011
   
   for metadynamics refer to:
   * S. Grimme, J. Chem. Theory Comput., 2019, 155, 2847-2862
     DOI: 10.1021/acs.jctc.9b00143
   
   for SPH calculations refer to:
   * S. Spicher and S. Grimme, J. Chem. Theory Comput., 2021, 17, 1701-1714
     DOI: 10.1021/acs.jctc.0c01306
   
   for ONIOM refer to:
   * C. Plett, A. Katbashev, S. Ehlert, S. Grimme, M. Bursch,
     Phys. Chem. Chem. Phys., 2023, 25, 17860-17868. DOI: 10.1039/D3CP02178E
   
   for DIPRO refer to:
   * J. Kohn, N. Gildemeister, S. Grimme, D. Fazzi, A. Hansen,
     J. Chem. Phys., 2023, just accepted.
   
   for PTB refer to:
   * S. Grimme, M. Mueller, A. Hansen, J. Chem. Phys., 2023, 158, 124111.
     DOI: 10.1063/5.0137838
   
   with help from (in alphabetical order)
   P. Atkinson, C. Bannwarth, F. Bohle, G. Brandenburg, E. Caldeweyher
   M. Checinski, S. Dohm, S. Ehlert, S. Ehrlich, I. Gerasimov, C. Hölzer
   A. Katbashev, J. Kohn, J. Koopman, C. Lavigne, S. Lehtola, F. März, M. Müller,
   F. Musil, H. Neugebauer, J. Pisarek, C. Plett, P. Pracht, F. Pultar,
   J. Seibert, P. Shushkov, S. Spicher, M. Stahn, M. Steiner, T. Strunk,
   J. Stückrath, T. Rose, and J. Unsleber
   
 * started run on 2025/06/23 at 11:31:56.050     
$$$$$$$$$$$$$$$$$$$$$$$$$$$$$$$$$$$$$$$$$$$$$$$$$$$$$$$$$$$$$$$$$$$$$$$$
 CONSTRAINTS & SCANS: DEBUG SECTION
$$$$$$$$$$$$$$$$$$$$$$$$$$$$$$$$$$$$$$$$$$$$$$$$$$$$$$$$$$$$$$$$$$$$$$$$
   ID    Z sym.   atoms
    1    8 O      1, 3, 5, 7, 9, 10
    2    6 C      2, 4, 6, 8
    3    1 H      11-14
$$$$$$$$$$$$$$$$$$$$$$$$$$$$$$$$$$$$$$$$$$$$$$$$$$$$$$$$$$$$$$$$$$$$$$$$

           -------------------------------------------------
          |                Calculation Setup                |
           -------------------------------------------------

          program call               : C:\Users\nkapa\Downloads\xtb-6.7.1pre-windows-x86_64\xtb-6.7.1\bin\xtb.EXE dft_tmp\175.xyz --gfn2 --parallel 8 --verbose --chrg -2
          coordinate file            : dft_tmp\175.xyz
          xtbhome directory          : C:\Users\nkapa\AppData\Roaming\SPB_Data
          path for xtb               : C:\Users\nkapa\Downloads\xtb-6.7.1pre-windows-x86_64\xtb-6.7.1\share\xtb
          xcontrol input file        : dft_tmp\175.xyz
          omp threads                :                     8


           -------------------------------------------------
          |                 G F N 2 - x T B                 |
           -------------------------------------------------

        Reference                      10.1021/acs.jctc.8b01176
      * Hamiltonian:
        H0-scaling (s, p, d)           1.850000    2.230000    2.230000
        zeta-weighting                 0.500000
      * Dispersion:
        s8                             2.700000
        a1                             0.520000
        a2                             5.000000
        s9                             5.000000
      * Repulsion:
        kExp                           1.500000    1.000000
        rExp                           1.000000
      * Coulomb:
        alpha                          2.000000
        third order                    shell-resolved
        anisotropic                    true
        a3                             3.000000
        a5                             4.000000
        cn-shift                       1.200000
        cn-exp                         4.000000
        max-rad                        5.000000


          ...................................................
          :                      SETUP                      :
          :.................................................:
          :  # basis functions                  44          :
          :  # atomic orbitals                  44          :
          :  # shells                           24          :
          :  # electrons                        58          :
          :  max. iterations                   250          :
          :  Hamiltonian                  GFN2-xTB          :
          :  restarted?                      false          :
          :  GBSA solvation                  false          :
          :  PC potential                    false          :
          :  electronic temp.          300.0000000     K    :
          :  accuracy                    1.0000000          :
          :  -> integral cutoff          0.2500000E+02      :
          :  -> integral neglect         0.1000000E-07      :
          :  -> SCF convergence          0.1000000E-05 Eh   :
          :  -> wf. convergence          0.1000000E-03 e    :
          :  Broyden damping             0.4000000          :
          :  net charge                         -2          :
          :  unpaired electrons                  0          :
          ...................................................

 iter      E             dE          RMSdq      gap      omega  full diag
   1    -35.3418879 -0.353419E+02  0.625E+00    4.49       0.0  T
   2    -35.4516203 -0.109732E+00  0.289E+00    3.53       1.0  T
   3    -35.4619308 -0.103105E-01  0.200E+00    4.18       1.0  T
   4    -35.4725987 -0.106679E-01  0.388E-01    3.68       1.0  T
   5    -35.4736371 -0.103843E-02  0.136E-01    3.81       1.0  T
   6    -35.4736714 -0.342892E-04  0.480E-02    3.81       1.0  T
   7    -35.4736781 -0.667178E-05  0.165E-02    3.81       1.6  T
   8    -35.4736785 -0.447128E-06  0.723E-03    3.80       3.7  T
   9    -35.4736788 -0.239207E-06  0.283E-03    3.81       9.4  T
  10    -35.4736788 -0.127038E-07  0.848E-04    3.81      31.5  T
  11    -35.4736788 -0.219806E-08  0.526E-04    3.80      50.8  T

   *** convergence criteria satisfied after 11 iterations ***

         #    Occupation            Energy/Eh            Energy/eV
      -------------------------------------------------------------
         1        2.0000           -0.4247317             -11.5575
       ...           ...                  ...                  ...
        23        2.0000           -0.1287625              -3.5038
        24        2.0000           -0.0657749              -1.7898
        25        2.0000           -0.0600446              -1.6339
        26        2.0000           -0.0581931              -1.5835
        27        2.0000           -0.0566466              -1.5414
        28        2.0000           -0.0492277              -1.3396
        29        2.0000           -0.0405400              -1.1031 (HOMO)
        30                          0.0992737               2.7014 (LUMO)
        31                          0.1178261               3.2062
        32                          0.2859833               7.7820
        33                          0.3324190               9.0456
        34                          0.3733459              10.1593
       ...                                ...                  ...
        44                          0.8150673              22.1791
      -------------------------------------------------------------
                  HL-Gap            0.1398137 Eh            3.8045 eV
             Fermi-level            0.0293668 Eh            0.7991 eV

 SCC (total)                   0 d,  0 h,  0 min,  0.015 sec
 SCC setup                      ...        0 min,  0.001 sec (  6.666%)
 Dispersion                     ...        0 min,  0.000 sec (  0.000%)
 classical contributions        ...        0 min,  0.000 sec (  0.000%)
 integral evaluation            ...        0 min,  0.001 sec (  6.668%)
 iterations                     ...        0 min,  0.010 sec ( 66.666%)
 molecular gradient             ...        0 min,  0.003 sec ( 20.000%)
 printout                       ...        0 min,  0.000 sec (  0.000%)

         :::::::::::::::::::::::::::::::::::::::::::::::::::::
         ::                     SUMMARY                     ::
         :::::::::::::::::::::::::::::::::::::::::::::::::::::
         :: total energy             -35.296671813567 Eh    ::
         :: gradient norm              0.232325024397 Eh/a0 ::
         :: HOMO-LUMO gap              3.804523434618 eV    ::
         ::.................................................::
         :: HOMO orbital eigv.        -1.103149818459 eV    ::
         :: LUMO orbital eigv.         2.701373616159 eV    ::
         ::.................................................::
         :: SCC energy               -35.473646302897 Eh    ::
         :: -> isotropic ES            0.591724333671 Eh    ::
         :: -> anisotropic ES         -0.006497703281 Eh    ::
         :: -> anisotropic XC         -0.008614749534 Eh    ::
         :: -> dispersion             -0.012729180929 Eh    ::
         :: repulsion energy           0.176974489329 Eh    ::
         :: add. restraining           0.000000000000 Eh    ::
         :: total charge              -2.000000000000 e     ::
         ::.................................................::
         :: atomisation energy         4.636466077366 Eh    ::
         :::::::::::::::::::::::::::::::::::::::::::::::::::::

           -------------------------------------------------
          |                Property Printout                |
           -------------------------------------------------

    * Orbital Energies and Occupations

         #    Occupation            Energy/Eh            Energy/eV
      -------------------------------------------------------------
         1        2.0000           -0.4247317             -11.5575
       ...           ...                  ...                  ...
        17        2.0000           -0.1797048              -4.8900
        18        2.0000           -0.1747829              -4.7561
        19        2.0000           -0.1682559              -4.5785
        20        2.0000           -0.1622275              -4.4144
        21        2.0000           -0.1588300              -4.3220
        22        2.0000           -0.1541912              -4.1958
        23        2.0000           -0.1287625              -3.5038
        24        2.0000           -0.0657749              -1.7898
        25        2.0000           -0.0600446              -1.6339
        26        2.0000           -0.0581931              -1.5835
        27        2.0000           -0.0566466              -1.5414
        28        2.0000           -0.0492277              -1.3396
        29        2.0000           -0.0405400              -1.1031 (HOMO)
        30                          0.0992737               2.7014 (LUMO)
        31                          0.1178261               3.2062
        32                          0.2859833               7.7820
        33                          0.3324190               9.0456
        34                          0.3733459              10.1593
        35                          0.3889940              10.5851
        36                          0.4082880              11.1101
        37                          0.4295370              11.6883
        38                          0.4587945              12.4844
        39                          0.4695914              12.7782
        40                          0.4938849              13.4393
       ...                                ...                  ...
        44                          0.8150673              22.1791
      -------------------------------------------------------------
                  HL-Gap            0.1398137 Eh            3.8045 eV
             Fermi-level            0.0293668 Eh            0.7991 eV

     #   Z          covCN         q      C6AA      α(0)
     1   8 O        0.856    -0.549    24.906     6.691
     2   6 C        2.686     0.322    21.525     7.593
     3   8 O        0.852    -0.679    28.159     7.114
     4   6 C        3.723     0.105    18.962     6.218
     5   8 O        1.652    -0.474    22.345     6.381
     6   6 C        3.723     0.110    18.876     6.204
     7   8 O        1.652    -0.434    21.519     6.262
     8   6 C        2.687     0.323    21.503     7.589
     9   8 O        0.856    -0.523    24.305     6.610
    10   8 O        0.852    -0.694    28.553     7.164
    11   1 H        0.921    -0.017     3.372     2.872
    12   1 H        0.801     0.298     0.729     1.341
    13   1 H        0.921    -0.036     3.776     3.039
    14   1 H        0.801     0.250     0.895     1.487

 Mol. C6AA /au·bohr⁶  :       2843.472527
 Mol. C8AA /au·bohr⁸  :      62398.667965
 Mol. α(0) /au        :         76.565210


Wiberg/Mayer (AO) data.
largest (>0.10) Wiberg bond orders for each atom

 ---------------------------------------------------------------------------
     #   Z sym  total        # sym  WBO       # sym  WBO       # sym  WBO
 ---------------------------------------------------------------------------
     1   8 O    1.888 --     2 C    1.582     3 O    0.235
     2   6 C    3.947 --     1 O    1.582     3 O    1.392     4 C    0.938
     3   8 O    1.687 --     2 C    1.392     1 O    0.235
     4   6 C    3.935 --     5 O    0.984    11 H    0.958     2 C    0.938
                             6 C    0.935
     5   8 O    1.945 --     4 C    0.984    12 H    0.888
     6   6 C    3.930 --     7 O    0.977    13 H    0.959     8 C    0.941
                             4 C    0.935
     7   8 O    1.965 --     6 C    0.977    14 H    0.921
     8   6 C    3.949 --     9 O    1.608    10 O    1.366     6 C    0.941
     9   8 O    1.912 --     8 C    1.608    10 O    0.238
    10   8 O    1.668 --     8 C    1.366     9 O    0.238
    11   1 H    1.000 --     4 C    0.958
    12   1 H    0.911 --     5 O    0.888
    13   1 H    0.999 --     6 C    0.959
    14   1 H    0.938 --     7 O    0.921
 ---------------------------------------------------------------------------

Topologies differ in total number of bonds
Writing topology from bond orders to xtbtopo.mol

molecular dipole:
                 x           y           z       tot (Debye)
 q only:        0.436       0.477      -3.974
   full:        0.538       0.569      -4.532      11.689
molecular quadrupole (traceless):
                xx          xy          yy          xz          yz          zz
 q only:      -24.056       2.004      17.109      -0.710      -3.331       6.948
  q+dip:      -25.159       3.483      16.631      -0.555      -5.665       8.528
   full:      -25.726       3.757      18.046      -0.186      -5.319       7.680


           -------------------------------------------------
          | TOTAL ENERGY              -35.296671813567 Eh   |
          | GRADIENT NORM               0.232325024397 Eh/α |
          | HOMO-LUMO GAP               3.804523434618 eV   |
           -------------------------------------------------
########################################################################
[WARNING] Runtime exception occurred
-2- restart_readRestart: Dimension missmatch in restart file.
-1- restart_readRestart: Number of electron missmatch in restart file.
########################################################################

------------------------------------------------------------------------
 unit  open   action     filename
  129 false : read       dft_tmp\175.xyz
  129 false : read       dft_tmp\175.xyz
  129 false : read       dft_tmp\175.xyz
  129 false : read       C:\Users\nkapa\Downloads\xtb-6.7.1pre-windows-x86_64\xtb-6.7.1\share\xtb\param_gfn2-xtb.txt
  129 false : read       xtbrestart
  129 false : replaced   charges
  129 false : replaced   wbo
  129 false : replaced   xtbtopo.mol
  129 false : replaced   xtbrestart

------------------------------------------------------------------------
 * finished run on 2025/06/23 at 11:31:56.109     
------------------------------------------------------------------------
 total:
 * wall-time:     0 d,  0 h,  0 min,  0.056 sec
 *  cpu-time:     0 d,  0 h,  0 min,  0.266 sec
 * ratio c/w:     4.743 speedup
 SCF:
 * wall-time:     0 d,  0 h,  0 min,  0.016 sec
 *  cpu-time:     0 d,  0 h,  0 min,  0.125 sec
 * ratio c/w:     7.812 speedup

normal termination of xtb
