30

O -0.013887 -1.947198 -2.499902
C -0.007848 -1.149033 -1.522454
C -1.286240 -0.618119 -0.993251
C -2.511554 -0.998359 -1.568454
C -3.714654 -0.497233 -1.068355
C -3.713527 0.394210 0.009424
S -5.232752 1.014910 0.647001
O -5.033515 2.409290 1.171135
O -6.268108 1.052112 -0.441802
O -5.764812 0.019401 1.890470
C -2.499012 0.772912 0.594435
C -1.279869 0.274819 0.099306
C 0.005986 0.678976 0.716088
O 0.012001 1.476837 1.693792
C 1.284827 0.148504 0.186607
C 2.510562 0.526186 0.764956
C 3.718916 0.028153 0.262419
S 5.244961 0.498877 1.003650
O 6.350438 0.430603 -0.012272
O 5.148460 1.907839 1.517678
O 5.591144 -0.539856 2.277046
C 3.705651 -0.862695 -0.815772
C 2.495883 -1.244984 -1.398003
C 1.277623 -0.744393 -0.905978
H -2.541182 -1.685352 -2.404911
H -4.647243 -0.807562 -1.522139
H -2.507256 1.454050 1.436315
H 2.528493 1.206038 1.607724
H 4.631902 -1.264576 -1.206281
H 2.514612 -1.934358 -2.232814
