18

O 2.126833 -0.619629 1.827487
C 2.055893 -0.497243 0.576169
O 2.680764 -1.429977 -0.242015
C 1.310073 0.653465 -0.028771
C -0.210978 0.596136 0.252956
C -0.801333 1.956951 -0.013149
O -1.340986 2.607141 0.920698
O -0.752804 2.504949 -1.289877
C -0.946933 -0.471392 -0.607984
O -2.343147 -0.337083 -0.498596
C -0.556608 -1.877753 -0.239607
O -0.097472 -2.657225 -1.115629
O -0.725232 -2.334095 1.062342
H 1.736523 1.586040 0.403002
H 1.496222 0.684393 -1.124627
H -0.368306 0.362469 1.330902
H -0.682292 -0.302133 -1.675534
H -2.580218 -0.425015 0.462233
