23

O 3.652626 0.515713 1.111659
C 3.606040 -0.266825 -0.048506
C 2.217750 -0.187914 -0.677218
O 1.259359 -0.790158 0.175648
C 0.462181 0.178243 0.832564
C -0.767368 0.528052 -0.004647
O -1.510997 -0.646282 -0.259063
C -2.724534 -0.333973 -0.917028
C -3.865237 -0.253000 0.094138
Cl -5.411227 0.033553 -0.743728
H 4.572111 0.418311 1.472061
H 3.840287 -1.326600 0.198480
H 4.357010 0.105109 -0.780727
H 2.236775 -0.763921 -1.626538
H 1.987378 0.866975 -0.958582
H 0.115806 -0.258007 1.793547
H 1.027042 1.101983 1.098310
H -1.372578 1.269232 0.565255
H -0.435203 0.990537 -0.960915
H -2.678811 0.603333 -1.521865
H -2.945731 -1.157490 -1.628798
H -3.935026 -1.205355 0.661295
H -3.687654 0.578484 0.807581
