17

C -0.620197 0.933006 0.603510
C 0.873823 0.739690 0.271637
C 1.154824 -0.663416 -0.190520
O 1.057840 -1.630524 0.612577
O 1.499966 -0.897840 -1.517934
N 1.712780 1.051200 1.430978
C -1.478594 0.800064 -0.621550
O -1.648930 1.794143 -1.376671
N -2.070150 -0.454469 -0.959561
H -0.943618 0.196699 1.371515
H -0.773848 1.946651 1.033798
H 1.148828 1.439348 -0.549793
H 1.681667 -1.837729 -1.849168
H 1.609546 2.067949 1.654625
H 1.372536 0.515310 2.263193
H -1.922992 -1.293698 -0.356065
H -2.653483 -0.546709 -1.820570
