25

C 1.982332 0.781421 -0.711383
C 1.271603 -0.580385 -0.586788
C 0.371700 -0.677009 0.674562
C -0.794604 0.351438 0.726098
C -1.735987 0.300609 -0.508962
C -2.902367 1.241432 -0.353524
O -3.937043 0.886067 0.271097
O -2.818632 2.533808 -0.856512
O -2.171982 -1.006969 -0.794319
O -1.525472 0.199584 1.920877
O 1.155092 -0.522195 1.832614
O 2.231046 -1.606841 -0.527185
O 2.814453 0.798794 -1.840611
Na 0.000000 0.000000 0.000000
H 2.568521 1.004546 0.209858
H 1.232211 1.587785 -0.839210
H 0.634892 -0.732989 -1.488347
H -0.084769 -1.695764 0.676071
H -0.352987 1.369822 0.763090
H -1.165307 0.656694 -1.392164
H -2.707973 -1.330601 -0.025251
H -1.820332 -0.745409 1.984966
H 1.589283 -1.396674 2.013306
H 2.478797 -1.834827 -1.461480
H 3.687525 0.417662 -1.561108
