      -----------------------------------------------------------      
     |                   =====================                   |     
     |                           x T B                           |     
     |                   =====================                   |     
     |                         S. Grimme                         |     
     |          Mulliken Center for Theoretical Chemistry        |     
     |                    University of Bonn                     |     
      -----------------------------------------------------------      

   * xtb version 6.7.1pre (5071a88) compiled by 'Marcel@Raven' on 2024-07-23

   xtb is free software: you can redistribute it and/or modify it under
   the terms of the GNU Lesser General Public License as published by
   the Free Software Foundation, either version 3 of the License, or
   (at your option) any later version.
   
   xtb is distributed in the hope that it will be useful,
   but WITHOUT ANY WARRANTY; without even the implied warranty of
   MERCHANTABILITY or FITNESS FOR A PARTICULAR PURPOSE.  See the
   GNU Lesser General Public License for more details.
   
   Cite this work as:
   * C. Bannwarth, E. Caldeweyher, S. Ehlert, A. Hansen, P. Pracht,
     J. Seibert, S. Spicher, S. Grimme, WIREs Comput. Mol. Sci., 2020, 11,
     e01493. DOI: 10.1002/wcms.1493
   
   for GFN2-xTB:
   * C. Bannwarth, S. Ehlert and S. Grimme., J. Chem. Theory Comput., 2019,
     15, 1652-1671. DOI: 10.1021/acs.jctc.8b01176
   for GFN1-xTB:
   * S. Grimme, C. Bannwarth, P. Shushkov, J. Chem. Theory Comput., 2017,
     13, 1989-2009. DOI: 10.1021/acs.jctc.7b00118
   for GFN0-xTB:
   * P. Pracht, E. Caldeweyher, S. Ehlert, S. Grimme, ChemRxiv, 2019, preprint.
     DOI: 10.26434/chemrxiv.8326202.v1
   for GFN-FF:
   * S. Spicher and S. Grimme, Angew. Chem. Int. Ed., 2020, 59, 15665-15673.
     DOI: 10.1002/anie.202004239
   
   for ALPB and GBSA implicit solvation:
   * S. Ehlert, M. Stahn, S. Spicher, S. Grimme, J. Chem. Theory Comput.,
     2021, 17, 4250-4261. DOI: 10.1021/acs.jctc.1c00471
   
   for ddCOSMO and CPCM-X implicit solvation:
   * M. Stahn, S. Ehlert, S. Grimme, J. Phys. Chem. A,
     2023, XX, XXXX-XXXX. DOI: 10.1021/acs.jpca.3c04382
   
   for DFT-D4:
   * E. Caldeweyher, C. Bannwarth and S. Grimme, J. Chem. Phys., 2017,
     147, 034112. DOI: 10.1063/1.4993215
   * E. Caldeweyher, S. Ehlert, A. Hansen, H. Neugebauer, S. Spicher,
     C. Bannwarth and S. Grimme, J. Chem. Phys., 2019, 150, 154122.
     DOI: 10.1063/1.5090222
   * E. Caldeweyher, J.-M. Mewes, S. Ehlert and S. Grimme, Phys. Chem. Chem. Phys.
     2020, 22, 8499-8512. DOI: 10.1039/D0CP00502A
   
   for sTDA-xTB:
   * S. Grimme and C. Bannwarth, J. Chem. Phys., 2016, 145, 054103.
     DOI: 10.1063/1.4959605
   
   in the mass-spec context:
   * V. Asgeirsson, C. Bauer and S. Grimme, Chem. Sci., 2017, 8, 4879.
     DOI: 10.1039/c7sc00601b
   * J. Koopman and S. Grimme, ACS Omega 2019, 4, 12, 15120-15133.
     DOI: 10.1021/acsomega.9b02011
   
   for metadynamics refer to:
   * S. Grimme, J. Chem. Theory Comput., 2019, 155, 2847-2862
     DOI: 10.1021/acs.jctc.9b00143
   
   for SPH calculations refer to:
   * S. Spicher and S. Grimme, J. Chem. Theory Comput., 2021, 17, 1701-1714
     DOI: 10.1021/acs.jctc.0c01306
   
   for ONIOM refer to:
   * C. Plett, A. Katbashev, S. Ehlert, S. Grimme, M. Bursch,
     Phys. Chem. Chem. Phys., 2023, 25, 17860-17868. DOI: 10.1039/D3CP02178E
   
   for DIPRO refer to:
   * J. Kohn, N. Gildemeister, S. Grimme, D. Fazzi, A. Hansen,
     J. Chem. Phys., 2023, just accepted.
   
   for PTB refer to:
   * S. Grimme, M. Mueller, A. Hansen, J. Chem. Phys., 2023, 158, 124111.
     DOI: 10.1063/5.0137838
   
   with help from (in alphabetical order)
   P. Atkinson, C. Bannwarth, F. Bohle, G. Brandenburg, E. Caldeweyher
   M. Checinski, S. Dohm, S. Ehlert, S. Ehrlich, I. Gerasimov, C. Hölzer
   A. Katbashev, J. Kohn, J. Koopman, C. Lavigne, S. Lehtola, F. März, M. Müller,
   F. Musil, H. Neugebauer, J. Pisarek, C. Plett, P. Pracht, F. Pultar,
   J. Seibert, P. Shushkov, S. Spicher, M. Stahn, M. Steiner, T. Strunk,
   J. Stückrath, T. Rose, and J. Unsleber
   
 * started run on 2025/06/23 at 11:31:59.707     
$$$$$$$$$$$$$$$$$$$$$$$$$$$$$$$$$$$$$$$$$$$$$$$$$$$$$$$$$$$$$$$$$$$$$$$$
 CONSTRAINTS & SCANS: DEBUG SECTION
$$$$$$$$$$$$$$$$$$$$$$$$$$$$$$$$$$$$$$$$$$$$$$$$$$$$$$$$$$$$$$$$$$$$$$$$
   ID    Z sym.   atoms
    1   11 Na     1
    2    9 F      2, 4-8
    3   15 P      3
$$$$$$$$$$$$$$$$$$$$$$$$$$$$$$$$$$$$$$$$$$$$$$$$$$$$$$$$$$$$$$$$$$$$$$$$

           -------------------------------------------------
          |                Calculation Setup                |
           -------------------------------------------------

          program call               : C:\Users\nkapa\Downloads\xtb-6.7.1pre-windows-x86_64\xtb-6.7.1\bin\xtb.EXE dft_tmp\204.xyz --gfn2 --parallel 8 --verbose
          coordinate file            : dft_tmp\204.xyz
          xtbhome directory          : C:\Users\nkapa\AppData\Roaming\SPB_Data
          path for xtb               : C:\Users\nkapa\Downloads\xtb-6.7.1pre-windows-x86_64\xtb-6.7.1\share\xtb
          xcontrol input file        : dft_tmp\204.xyz
          omp threads                :                     8


           -------------------------------------------------
          |                 G F N 2 - x T B                 |
           -------------------------------------------------

        Reference                      10.1021/acs.jctc.8b01176
      * Hamiltonian:
        H0-scaling (s, p, d)           1.850000    2.230000    2.230000
        zeta-weighting                 0.500000
      * Dispersion:
        s8                             2.700000
        a1                             0.520000
        a2                             5.000000
        s9                             5.000000
      * Repulsion:
        kExp                           1.500000    1.000000
        rExp                           1.000000
      * Coulomb:
        alpha                          2.000000
        third order                    shell-resolved
        anisotropic                    true
        a3                             3.000000
        a5                             4.000000
        cn-shift                       1.200000
        cn-exp                         4.000000
        max-rad                        5.000000


          ...................................................
          :                      SETUP                      :
          :.................................................:
          :  # basis functions                  38          :
          :  # atomic orbitals                  37          :
          :  # shells                           17          :
          :  # electrons                        48          :
          :  max. iterations                   250          :
          :  Hamiltonian                  GFN2-xTB          :
          :  restarted?                      false          :
          :  GBSA solvation                  false          :
          :  PC potential                    false          :
          :  electronic temp.          300.0000000     K    :
          :  accuracy                    1.0000000          :
          :  -> integral cutoff          0.2500000E+02      :
          :  -> integral neglect         0.1000000E-07      :
          :  -> SCF convergence          0.1000000E-05 Eh   :
          :  -> wf. convergence          0.1000000E-03 e    :
          :  Broyden damping             0.4000000          :
          :  net charge                          0          :
          :  unpaired electrons                  0          :
          ...................................................

 iter      E             dE          RMSdq      gap      omega  full diag
   1    -30.6546990 -0.306547E+02  0.135E+01    4.25       0.0  T
   2    -30.7124008 -0.577018E-01  0.734E+00    2.86       1.0  T
   3    -30.7448676 -0.324668E-01  0.296E+00    1.35       1.0  T
   4    -30.7461765 -0.130884E-02  0.189E+00    1.10       1.0  T
   5    -30.7468246 -0.648121E-03  0.571E-01    1.17       1.0  T
   6    -30.7469890 -0.164419E-03  0.275E-01    1.06       1.0  T
   7    -30.7469717  0.173306E-04  0.367E-01    1.10       1.0  T
   8    -30.7470812 -0.109489E-03  0.782E-02    1.11       1.0  T
   9    -30.7470816 -0.456934E-06  0.543E-02    1.10       1.0  T
  10    -30.7470837 -0.210551E-05  0.174E-02    1.10       2.0  T
  11    -30.7470839 -0.169456E-06  0.111E-02    1.10       3.2  T
  12    -30.7470840 -0.925897E-07  0.802E-04    1.10      44.1  T
  13    -30.7470840 -0.269019E-09  0.378E-04    1.10      93.6  T

   *** convergence criteria satisfied after 13 iterations ***

         #    Occupation            Energy/Eh            Energy/eV
      -------------------------------------------------------------
         1        2.0000           -1.1397342             -31.0137
       ...           ...                  ...                  ...
        18        2.0000           -0.5350496             -14.5594
        19        2.0000           -0.5145237             -14.0009
        20        2.0000           -0.5080222             -13.8240
        21        2.0000           -0.5029495             -13.6860
        22        2.0000           -0.4988953             -13.5756
        23        2.0000           -0.4932706             -13.4226
        24        2.0000           -0.2947475              -8.0205 (HOMO)
        25                         -0.2542752              -6.9192 (LUMO)
        26                         -0.0204755              -0.5572
        27                          0.0289029               0.7865
        28                          0.0577287               1.5709
        29                          0.0920418               2.5046
       ...                                ...                  ...
        37                          2.1588621              58.7456
      -------------------------------------------------------------
                  HL-Gap            0.0404723 Eh            1.1013 eV
             Fermi-level           -0.2745113 Eh           -7.4698 eV

 SCC (total)                   0 d,  0 h,  0 min,  0.013 sec
 SCC setup                      ...        0 min,  0.000 sec (  0.000%)
 Dispersion                     ...        0 min,  0.001 sec (  7.692%)
 classical contributions        ...        0 min,  0.000 sec (  0.000%)
 integral evaluation            ...        0 min,  0.000 sec (  0.000%)
 iterations                     ...        0 min,  0.010 sec ( 76.923%)
 molecular gradient             ...        0 min,  0.001 sec (  7.692%)
 printout                       ...        0 min,  0.001 sec (  7.694%)

         :::::::::::::::::::::::::::::::::::::::::::::::::::::
         ::                     SUMMARY                     ::
         :::::::::::::::::::::::::::::::::::::::::::::::::::::
         :: total energy              45.108661006158 Eh    ::
         :: gradient norm            250.914429146224 Eh/a0 ::
         :: HOMO-LUMO gap              1.101306853682 eV    ::
         ::.................................................::
         :: HOMO orbital eigv.        -8.020486915267 eV    ::
         :: LUMO orbital eigv.        -6.919180061585 eV    ::
         ::.................................................::
         :: SCC energy               -30.747083314981 Eh    ::
         :: -> isotropic ES            0.146739332858 Eh    ::
         :: -> anisotropic ES          0.008340024428 Eh    ::
         :: -> anisotropic XC         -0.093319677877 Eh    ::
         :: -> dispersion             -0.004788500172 Eh    ::
         :: repulsion energy          75.855744321140 Eh    ::
         :: add. restraining           0.000000000000 Eh    ::
         :: total charge              -0.000000000000 e     ::
         ::.................................................::
         :: atomisation energy       -75.212557059035 Eh    ::
         :::::::::::::::::::::::::::::::::::::::::::::::::::::

           -------------------------------------------------
          |                Property Printout                |
           -------------------------------------------------

    * Orbital Energies and Occupations

         #    Occupation            Energy/Eh            Energy/eV
      -------------------------------------------------------------
         1        2.0000           -1.1397342             -31.0137
       ...           ...                  ...                  ...
        12        2.0000           -0.6297868             -17.1374
        13        2.0000           -0.5844015             -15.9024
        14        2.0000           -0.5784322             -15.7399
        15        2.0000           -0.5587365             -15.2040
        16        2.0000           -0.5572904             -15.1646
        17        2.0000           -0.5371320             -14.6161
        18        2.0000           -0.5350496             -14.5594
        19        2.0000           -0.5145237             -14.0009
        20        2.0000           -0.5080222             -13.8240
        21        2.0000           -0.5029495             -13.6860
        22        2.0000           -0.4988953             -13.5756
        23        2.0000           -0.4932706             -13.4226
        24        2.0000           -0.2947475              -8.0205 (HOMO)
        25                         -0.2542752              -6.9192 (LUMO)
        26                         -0.0204755              -0.5572
        27                          0.0289029               0.7865
        28                          0.0577287               1.5709
        29                          0.0920418               2.5046
        30                          0.1144580               3.1146
        31                          0.1806139               4.9148
        32                          0.2166477               5.8953
        33                          0.3734691              10.1626
        34                          0.3930311              10.6949
        35                          0.9840134              26.7764
       ...                                ...                  ...
        37                          2.1588621              58.7456
      -------------------------------------------------------------
                  HL-Gap            0.0404723 Eh            1.1013 eV
             Fermi-level           -0.2745113 Eh           -7.4698 eV

     #   Z          covCN         q      C6AA      α(0)
     1  11 Na       4.397     0.599    11.307     6.166
     2   9 F        2.313     0.196     7.844     3.310
     3  15 P        5.234     0.073   157.006    22.509
     4   9 F        1.336    -0.301    12.321     4.148
     5   9 F        1.423    -0.249    11.745     4.050
     6   9 F        1.340    -0.219    11.423     3.994
     7   9 F        1.340    -0.302    12.333     4.150
     8   9 F        2.397     0.202     7.799     3.300

 Mol. C6AA /au·bohr⁶  :       1200.116893
 Mol. C8AA /au·bohr⁸  :      43319.875625
 Mol. α(0) /au        :         51.624766


Wiberg/Mayer (AO) data.
largest (>0.10) Wiberg bond orders for each atom

 ---------------------------------------------------------------------------
     #   Z sym  total        # sym  WBO       # sym  WBO       # sym  WBO
 ---------------------------------------------------------------------------
     1  11 Na   0.734 --     3 P    0.210     7 F    0.141     4 F    0.138
                             6 F    0.109     5 F    0.103
     2   9 F    1.366 --     8 F    0.989     3 P    0.314
     3  15 P    4.827 --     6 F    1.059     5 F    1.018     4 F    0.959
                             7 F    0.953     2 F    0.314     8 F    0.313
                             1 Na   0.210
     4   9 F    1.193 --     3 P    0.959     1 Na   0.138
     5   9 F    1.224 --     3 P    1.018     1 Na   0.103
     6   9 F    1.284 --     3 P    1.059     1 Na   0.109
     7   9 F    1.191 --     3 P    0.953     1 Na   0.141
     8   9 F    1.362 --     2 F    0.989     3 P    0.313
 ---------------------------------------------------------------------------

Topologies differ in total number of bonds
Writing topology from bond orders to xtbtopo.mol

molecular dipole:
                 x           y           z       tot (Debye)
 q only:       -0.649      -1.644      -1.132
   full:       -1.015      -2.870      -2.212       9.564
molecular quadrupole (traceless):
                xx          xy          yy          xz          yz          zz
 q only:       -3.559       1.149       0.946       1.741       4.039       2.613
  q+dip:       -5.499       2.439       1.062       1.407       3.464       4.437
   full:       -4.713       1.608       1.165       1.657       3.423       3.548


           -------------------------------------------------
          | TOTAL ENERGY               45.108661006158 Eh   |
          | GRADIENT NORM             250.914429146224 Eh/α |
          | HOMO-LUMO GAP               1.101306853682 eV   |
           -------------------------------------------------
########################################################################
[WARNING] Runtime exception occurred
-2- restart_readRestart: Dimension missmatch in restart file.
-1- restart_readRestart: Number of electron missmatch in restart file.
########################################################################

------------------------------------------------------------------------
 unit  open   action     filename
  129 false : read       dft_tmp\204.xyz
  129 false : read       dft_tmp\204.xyz
  129 false : read       dft_tmp\204.xyz
  129 false : read       C:\Users\nkapa\Downloads\xtb-6.7.1pre-windows-x86_64\xtb-6.7.1\share\xtb\param_gfn2-xtb.txt
  129 false : read       xtbrestart
  129 false : replaced   charges
  129 false : replaced   wbo
  129 false : replaced   xtbtopo.mol
  129 false : replaced   xtbrestart

------------------------------------------------------------------------
 * finished run on 2025/06/23 at 11:31:59.763     
------------------------------------------------------------------------
 total:
 * wall-time:     0 d,  0 h,  0 min,  0.055 sec
 *  cpu-time:     0 d,  0 h,  0 min,  0.250 sec
 * ratio c/w:     4.545 speedup
 SCF:
 * wall-time:     0 d,  0 h,  0 min,  0.013 sec
 *  cpu-time:     0 d,  0 h,  0 min,  0.125 sec
 * ratio c/w:     9.615 speedup

normal termination of xtb
