      -----------------------------------------------------------      
     |                   =====================                   |     
     |                           x T B                           |     
     |                   =====================                   |     
     |                         S. Grimme                         |     
     |          Mulliken Center for Theoretical Chemistry        |     
     |                    University of Bonn                     |     
      -----------------------------------------------------------      

   * xtb version 6.7.1pre (5071a88) compiled by 'Marcel@Raven' on 2024-07-23

   xtb is free software: you can redistribute it and/or modify it under
   the terms of the GNU Lesser General Public License as published by
   the Free Software Foundation, either version 3 of the License, or
   (at your option) any later version.
   
   xtb is distributed in the hope that it will be useful,
   but WITHOUT ANY WARRANTY; without even the implied warranty of
   MERCHANTABILITY or FITNESS FOR A PARTICULAR PURPOSE.  See the
   GNU Lesser General Public License for more details.
   
   Cite this work as:
   * C. Bannwarth, E. Caldeweyher, S. Ehlert, A. Hansen, P. Pracht,
     J. Seibert, S. Spicher, S. Grimme, WIREs Comput. Mol. Sci., 2020, 11,
     e01493. DOI: 10.1002/wcms.1493
   
   for GFN2-xTB:
   * C. Bannwarth, S. Ehlert and S. Grimme., J. Chem. Theory Comput., 2019,
     15, 1652-1671. DOI: 10.1021/acs.jctc.8b01176
   for GFN1-xTB:
   * S. Grimme, C. Bannwarth, P. Shushkov, J. Chem. Theory Comput., 2017,
     13, 1989-2009. DOI: 10.1021/acs.jctc.7b00118
   for GFN0-xTB:
   * P. Pracht, E. Caldeweyher, S. Ehlert, S. Grimme, ChemRxiv, 2019, preprint.
     DOI: 10.26434/chemrxiv.8326202.v1
   for GFN-FF:
   * S. Spicher and S. Grimme, Angew. Chem. Int. Ed., 2020, 59, 15665-15673.
     DOI: 10.1002/anie.202004239
   
   for ALPB and GBSA implicit solvation:
   * S. Ehlert, M. Stahn, S. Spicher, S. Grimme, J. Chem. Theory Comput.,
     2021, 17, 4250-4261. DOI: 10.1021/acs.jctc.1c00471
   
   for ddCOSMO and CPCM-X implicit solvation:
   * M. Stahn, S. Ehlert, S. Grimme, J. Phys. Chem. A,
     2023, XX, XXXX-XXXX. DOI: 10.1021/acs.jpca.3c04382
   
   for DFT-D4:
   * E. Caldeweyher, C. Bannwarth and S. Grimme, J. Chem. Phys., 2017,
     147, 034112. DOI: 10.1063/1.4993215
   * E. Caldeweyher, S. Ehlert, A. Hansen, H. Neugebauer, S. Spicher,
     C. Bannwarth and S. Grimme, J. Chem. Phys., 2019, 150, 154122.
     DOI: 10.1063/1.5090222
   * E. Caldeweyher, J.-M. Mewes, S. Ehlert and S. Grimme, Phys. Chem. Chem. Phys.
     2020, 22, 8499-8512. DOI: 10.1039/D0CP00502A
   
   for sTDA-xTB:
   * S. Grimme and C. Bannwarth, J. Chem. Phys., 2016, 145, 054103.
     DOI: 10.1063/1.4959605
   
   in the mass-spec context:
   * V. Asgeirsson, C. Bauer and S. Grimme, Chem. Sci., 2017, 8, 4879.
     DOI: 10.1039/c7sc00601b
   * J. Koopman and S. Grimme, ACS Omega 2019, 4, 12, 15120-15133.
     DOI: 10.1021/acsomega.9b02011
   
   for metadynamics refer to:
   * S. Grimme, J. Chem. Theory Comput., 2019, 155, 2847-2862
     DOI: 10.1021/acs.jctc.9b00143
   
   for SPH calculations refer to:
   * S. Spicher and S. Grimme, J. Chem. Theory Comput., 2021, 17, 1701-1714
     DOI: 10.1021/acs.jctc.0c01306
   
   for ONIOM refer to:
   * C. Plett, A. Katbashev, S. Ehlert, S. Grimme, M. Bursch,
     Phys. Chem. Chem. Phys., 2023, 25, 17860-17868. DOI: 10.1039/D3CP02178E
   
   for DIPRO refer to:
   * J. Kohn, N. Gildemeister, S. Grimme, D. Fazzi, A. Hansen,
     J. Chem. Phys., 2023, just accepted.
   
   for PTB refer to:
   * S. Grimme, M. Mueller, A. Hansen, J. Chem. Phys., 2023, 158, 124111.
     DOI: 10.1063/5.0137838
   
   with help from (in alphabetical order)
   P. Atkinson, C. Bannwarth, F. Bohle, G. Brandenburg, E. Caldeweyher
   M. Checinski, S. Dohm, S. Ehlert, S. Ehrlich, I. Gerasimov, C. Hölzer
   A. Katbashev, J. Kohn, J. Koopman, C. Lavigne, S. Lehtola, F. März, M. Müller,
   F. Musil, H. Neugebauer, J. Pisarek, C. Plett, P. Pracht, F. Pultar,
   J. Seibert, P. Shushkov, S. Spicher, M. Stahn, M. Steiner, T. Strunk,
   J. Stückrath, T. Rose, and J. Unsleber
   
 * started run on 2025/06/23 at 11:31:59.815     
$$$$$$$$$$$$$$$$$$$$$$$$$$$$$$$$$$$$$$$$$$$$$$$$$$$$$$$$$$$$$$$$$$$$$$$$
 CONSTRAINTS & SCANS: DEBUG SECTION
$$$$$$$$$$$$$$$$$$$$$$$$$$$$$$$$$$$$$$$$$$$$$$$$$$$$$$$$$$$$$$$$$$$$$$$$
   ID    Z sym.   atoms
    1    6 C      1
    2    9 F      2-4
    3   16 S      5
    4    8 O      6-8
    5   11 Na     9
$$$$$$$$$$$$$$$$$$$$$$$$$$$$$$$$$$$$$$$$$$$$$$$$$$$$$$$$$$$$$$$$$$$$$$$$

           -------------------------------------------------
          |                Calculation Setup                |
           -------------------------------------------------

          program call               : C:\Users\nkapa\Downloads\xtb-6.7.1pre-windows-x86_64\xtb-6.7.1\bin\xtb.EXE dft_tmp\205.xyz --gfn2 --parallel 8 --verbose
          coordinate file            : dft_tmp\205.xyz
          xtbhome directory          : C:\Users\nkapa\AppData\Roaming\SPB_Data
          path for xtb               : C:\Users\nkapa\Downloads\xtb-6.7.1pre-windows-x86_64\xtb-6.7.1\share\xtb
          xcontrol input file        : dft_tmp\205.xyz
          omp threads                :                     8


           -------------------------------------------------
          |                 G F N 2 - x T B                 |
           -------------------------------------------------

        Reference                      10.1021/acs.jctc.8b01176
      * Hamiltonian:
        H0-scaling (s, p, d)           1.850000    2.230000    2.230000
        zeta-weighting                 0.500000
      * Dispersion:
        s8                             2.700000
        a1                             0.520000
        a2                             5.000000
        s9                             5.000000
      * Repulsion:
        kExp                           1.500000    1.000000
        rExp                           1.000000
      * Coulomb:
        alpha                          2.000000
        third order                    shell-resolved
        anisotropic                    true
        a3                             3.000000
        a5                             4.000000
        cn-shift                       1.200000
        cn-exp                         4.000000
        max-rad                        5.000000


          ...................................................
          :                      SETUP                      :
          :.................................................:
          :  # basis functions                  42          :
          :  # atomic orbitals                  41          :
          :  # shells                           19          :
          :  # electrons                        50          :
          :  max. iterations                   250          :
          :  Hamiltonian                  GFN2-xTB          :
          :  restarted?                      false          :
          :  GBSA solvation                  false          :
          :  PC potential                    false          :
          :  electronic temp.          300.0000000     K    :
          :  accuracy                    1.0000000          :
          :  -> integral cutoff          0.2500000E+02      :
          :  -> integral neglect         0.1000000E-07      :
          :  -> SCF convergence          0.1000000E-05 Eh   :
          :  -> wf. convergence          0.1000000E-03 e    :
          :  Broyden damping             0.4000000          :
          :  net charge                          0          :
          :  unpaired electrons                  0          :
          ...................................................

 iter      E             dE          RMSdq      gap      omega  full diag
   1    -31.6151847 -0.316152E+02  0.101E+01    6.29       0.0  T
   2    -31.9845236 -0.369339E+00  0.755E+00    4.30       1.0  T
   3    -32.0496021 -0.650785E-01  0.387E+00    4.83       1.0  T
   4    -32.0523224 -0.272031E-02  0.920E-01    4.61       1.0  T
   5    -32.0525891 -0.266675E-03  0.595E-01    4.72       1.0  T
   6    -32.0530720 -0.482853E-03  0.155E-01    4.66       1.0  T
   7    -32.0531081 -0.361410E-04  0.791E-02    4.67       1.0  T
   8    -32.0531155 -0.736101E-05  0.393E-02    4.66       1.0  T
   9    -32.0531184 -0.297023E-05  0.116E-02    4.66       2.9  T
  10    -32.0531186 -0.152954E-06  0.235E-03    4.66      14.2  T
  11    -32.0531186 -0.152220E-07  0.470E-04    4.66      70.9  T
  12    -32.0531186 -0.975220E-10  0.227E-04    4.66     146.8  T

   *** convergence criteria satisfied after 12 iterations ***

         #    Occupation            Energy/Eh            Energy/eV
      -------------------------------------------------------------
         1        2.0000           -0.9823372             -26.7308
       ...           ...                  ...                  ...
        19        2.0000           -0.5771218             -15.7043
        20        2.0000           -0.5207353             -14.1699
        21        2.0000           -0.5164142             -14.0523
        22        2.0000           -0.5043341             -13.7236
        23        2.0000           -0.4977012             -13.5431
        24        2.0000           -0.4753766             -12.9357
        25        2.0000           -0.4675798             -12.7235 (HOMO)
        26                         -0.2962170              -8.0605 (LUMO)
        27                         -0.2039555              -5.5499
        28                         -0.1930717              -5.2537
        29                         -0.1717780              -4.6743
        30                         -0.1255704              -3.4169
       ...                                ...                  ...
        41                          0.9142957              24.8793
      -------------------------------------------------------------
                  HL-Gap            0.1713628 Eh            4.6630 eV
             Fermi-level           -0.3818984 Eh          -10.3920 eV

 SCC (total)                   0 d,  0 h,  0 min,  0.014 sec
 SCC setup                      ...        0 min,  0.000 sec (  0.000%)
 Dispersion                     ...        0 min,  0.000 sec (  0.000%)
 classical contributions        ...        0 min,  0.001 sec (  7.144%)
 integral evaluation            ...        0 min,  0.001 sec (  7.142%)
 iterations                     ...        0 min,  0.010 sec ( 71.428%)
 molecular gradient             ...        0 min,  0.002 sec ( 14.286%)
 printout                       ...        0 min,  0.000 sec (  0.000%)

         :::::::::::::::::::::::::::::::::::::::::::::::::::::
         ::                     SUMMARY                     ::
         :::::::::::::::::::::::::::::::::::::::::::::::::::::
         :: total energy             -21.748313304651 Eh    ::
         :: gradient norm             23.766606979765 Eh/a0 ::
         :: HOMO-LUMO gap              4.663018411497 eV    ::
         ::.................................................::
         :: HOMO orbital eigv.       -12.723493162708 eV    ::
         :: LUMO orbital eigv.        -8.060474751211 eV    ::
         ::.................................................::
         :: SCC energy               -32.053115971982 Eh    ::
         :: -> isotropic ES            0.182768373091 Eh    ::
         :: -> anisotropic ES          0.000811559847 Eh    ::
         :: -> anisotropic XC         -0.017569783207 Eh    ::
         :: -> dispersion             -0.007087005321 Eh    ::
         :: repulsion energy          10.304802667331 Eh    ::
         :: add. restraining           0.000000000000 Eh    ::
         :: total charge              -0.000000000000 e     ::
         ::.................................................::
         :: atomisation energy        -8.336261497248 Eh    ::
         :::::::::::::::::::::::::::::::::::::::::::::::::::::

           -------------------------------------------------
          |                Property Printout                |
           -------------------------------------------------

    * Orbital Energies and Occupations

         #    Occupation            Energy/Eh            Energy/eV
      -------------------------------------------------------------
         1        2.0000           -0.9823372             -26.7308
       ...           ...                  ...                  ...
        13        2.0000           -0.6491141             -17.6633
        14        2.0000           -0.6422302             -17.4760
        15        2.0000           -0.6421823             -17.4747
        16        2.0000           -0.6405706             -17.4308
        17        2.0000           -0.5969097             -16.2427
        18        2.0000           -0.5833203             -15.8730
        19        2.0000           -0.5771218             -15.7043
        20        2.0000           -0.5207353             -14.1699
        21        2.0000           -0.5164142             -14.0523
        22        2.0000           -0.5043341             -13.7236
        23        2.0000           -0.4977012             -13.5431
        24        2.0000           -0.4753766             -12.9357
        25        2.0000           -0.4675798             -12.7235 (HOMO)
        26                         -0.2962170              -8.0605 (LUMO)
        27                         -0.2039555              -5.5499
        28                         -0.1930717              -5.2537
        29                         -0.1717780              -4.6743
        30                         -0.1255704              -3.4169
        31                         -0.0995830              -2.7098
        32                         -0.0862993              -2.3483
        33                         -0.0324313              -0.8825
        34                          0.0085768               0.2334
        35                          0.0154066               0.4192
        36                          0.1131402               3.0787
       ...                                ...                  ...
        41                          0.9142957              24.8793
      -------------------------------------------------------------
                  HL-Gap            0.1713628 Eh            4.6630 eV
             Fermi-level           -0.3818984 Eh          -10.3920 eV

     #   Z          covCN         q      C6AA      α(0)
     1   6 C        4.081     0.216    17.156     5.883
     2   9 F        1.409    -0.102    10.266     3.786
     3   9 F        1.409    -0.102    10.266     3.786
     4   9 F        1.408    -0.103    10.270     3.787
     5  16 S        4.384     1.054   105.126    17.257
     6   8 O        1.515    -0.508    23.185     6.494
     7   8 O        1.515    -0.508    23.185     6.494
     8   8 O        1.504    -0.556    24.274     6.644
     9  11 Na       5.274     0.611    11.282     6.159

 Mol. C6AA /au·bohr⁶  :       1725.578589
 Mol. C8AA /au·bohr⁸  :      55293.361845
 Mol. α(0) /au        :         60.290154


Wiberg/Mayer (AO) data.
largest (>0.10) Wiberg bond orders for each atom

 ---------------------------------------------------------------------------
     #   Z sym  total        # sym  WBO       # sym  WBO       # sym  WBO
 ---------------------------------------------------------------------------
     1   6 C    3.820 --     3 F    0.981     2 F    0.981     4 F    0.980
                             5 S    0.700
     2   9 F    1.216 --     1 C    0.981
     3   9 F    1.216 --     1 C    0.981
     4   9 F    1.215 --     1 C    0.980
     5  16 S    5.062 --     6 O    1.526     7 O    1.526     8 O    1.258
                             1 C    0.700
     6   8 O    1.989 --     5 S    1.526     9 Na   0.146     8 O    0.123
                             7 O    0.106
     7   8 O    1.989 --     5 S    1.526     9 Na   0.146     8 O    0.123
                             6 O    0.106
     8   8 O    1.794 --     5 S    1.258     9 Na   0.182     6 O    0.123
                             7 O    0.123
     9  11 Na   0.739 --     8 O    0.182     7 O    0.146     6 O    0.146
 ---------------------------------------------------------------------------

Topologies differ in total number of bonds
Writing topology from bond orders to xtbtopo.mol

molecular dipole:
                 x           y           z       tot (Debye)
 q only:       -1.994      -0.165      -0.020
   full:       -2.678      -0.202      -0.025       6.826
molecular quadrupole (traceless):
                xx          xy          yy          xz          yz          zz
 q only:       -2.581      -1.176       0.383      -0.099      -0.126       2.198
  q+dip:       -2.605      -1.214       0.503      -0.102      -0.112       2.103
   full:       -2.219      -1.309       0.271      -0.105      -0.117       1.948


           -------------------------------------------------
          | TOTAL ENERGY              -21.748313304651 Eh   |
          | GRADIENT NORM              23.766606979765 Eh/α |
          | HOMO-LUMO GAP               4.663018411497 eV   |
           -------------------------------------------------
########################################################################
[WARNING] Runtime exception occurred
-2- restart_readRestart: Dimension missmatch in restart file.
-1- restart_readRestart: Number of electron missmatch in restart file.
########################################################################

------------------------------------------------------------------------
 unit  open   action     filename
  129 false : read       dft_tmp\205.xyz
  129 false : read       dft_tmp\205.xyz
  129 false : read       dft_tmp\205.xyz
  129 false : read       C:\Users\nkapa\Downloads\xtb-6.7.1pre-windows-x86_64\xtb-6.7.1\share\xtb\param_gfn2-xtb.txt
  129 false : read       xtbrestart
  129 false : replaced   charges
  129 false : replaced   wbo
  129 false : replaced   xtbtopo.mol
  129 false : replaced   xtbrestart

------------------------------------------------------------------------
 * finished run on 2025/06/23 at 11:31:59.869     
------------------------------------------------------------------------
 total:
 * wall-time:     0 d,  0 h,  0 min,  0.052 sec
 *  cpu-time:     0 d,  0 h,  0 min,  0.375 sec
 * ratio c/w:     7.212 speedup
 SCF:
 * wall-time:     0 d,  0 h,  0 min,  0.015 sec
 *  cpu-time:     0 d,  0 h,  0 min,  0.094 sec
 * ratio c/w:     6.250 speedup

normal termination of xtb
