18

O -2.758926 -0.025452 1.180156
C -2.007778 -0.639388 0.377383
O -1.935101 -2.025651 0.429448
C -1.181937 0.122653 -0.620108
C 0.181382 0.609681 -0.063891
O 0.835013 1.303193 -1.102558
C 1.074772 -0.578218 0.401954
C 1.461628 -1.487921 -0.727260
O 0.823566 -2.554063 -0.931125
O 2.511870 -1.144549 -1.569244
C -0.065587 1.574033 1.081898
O -0.090152 1.169894 2.275606
O -0.336212 2.910952 0.814318
H -1.769733 0.999312 -0.972207
H -1.017594 -0.519055 -1.512264
H 1.703439 1.636016 -0.751602
H 0.562929 -1.169764 1.191756
H 2.008420 -0.181674 0.857752
