      -----------------------------------------------------------      
     |                   =====================                   |     
     |                           x T B                           |     
     |                   =====================                   |     
     |                         S. Grimme                         |     
     |          Mulliken Center for Theoretical Chemistry        |     
     |                    University of Bonn                     |     
      -----------------------------------------------------------      

   * xtb version 6.7.1pre (5071a88) compiled by 'Marcel@Raven' on 2024-07-23

   xtb is free software: you can redistribute it and/or modify it under
   the terms of the GNU Lesser General Public License as published by
   the Free Software Foundation, either version 3 of the License, or
   (at your option) any later version.
   
   xtb is distributed in the hope that it will be useful,
   but WITHOUT ANY WARRANTY; without even the implied warranty of
   MERCHANTABILITY or FITNESS FOR A PARTICULAR PURPOSE.  See the
   GNU Lesser General Public License for more details.
   
   Cite this work as:
   * C. Bannwarth, E. Caldeweyher, S. Ehlert, A. Hansen, P. Pracht,
     J. Seibert, S. Spicher, S. Grimme, WIREs Comput. Mol. Sci., 2020, 11,
     e01493. DOI: 10.1002/wcms.1493
   
   for GFN2-xTB:
   * C. Bannwarth, S. Ehlert and S. Grimme., J. Chem. Theory Comput., 2019,
     15, 1652-1671. DOI: 10.1021/acs.jctc.8b01176
   for GFN1-xTB:
   * S. Grimme, C. Bannwarth, P. Shushkov, J. Chem. Theory Comput., 2017,
     13, 1989-2009. DOI: 10.1021/acs.jctc.7b00118
   for GFN0-xTB:
   * P. Pracht, E. Caldeweyher, S. Ehlert, S. Grimme, ChemRxiv, 2019, preprint.
     DOI: 10.26434/chemrxiv.8326202.v1
   for GFN-FF:
   * S. Spicher and S. Grimme, Angew. Chem. Int. Ed., 2020, 59, 15665-15673.
     DOI: 10.1002/anie.202004239
   
   for ALPB and GBSA implicit solvation:
   * S. Ehlert, M. Stahn, S. Spicher, S. Grimme, J. Chem. Theory Comput.,
     2021, 17, 4250-4261. DOI: 10.1021/acs.jctc.1c00471
   
   for ddCOSMO and CPCM-X implicit solvation:
   * M. Stahn, S. Ehlert, S. Grimme, J. Phys. Chem. A,
     2023, XX, XXXX-XXXX. DOI: 10.1021/acs.jpca.3c04382
   
   for DFT-D4:
   * E. Caldeweyher, C. Bannwarth and S. Grimme, J. Chem. Phys., 2017,
     147, 034112. DOI: 10.1063/1.4993215
   * E. Caldeweyher, S. Ehlert, A. Hansen, H. Neugebauer, S. Spicher,
     C. Bannwarth and S. Grimme, J. Chem. Phys., 2019, 150, 154122.
     DOI: 10.1063/1.5090222
   * E. Caldeweyher, J.-M. Mewes, S. Ehlert and S. Grimme, Phys. Chem. Chem. Phys.
     2020, 22, 8499-8512. DOI: 10.1039/D0CP00502A
   
   for sTDA-xTB:
   * S. Grimme and C. Bannwarth, J. Chem. Phys., 2016, 145, 054103.
     DOI: 10.1063/1.4959605
   
   in the mass-spec context:
   * V. Asgeirsson, C. Bauer and S. Grimme, Chem. Sci., 2017, 8, 4879.
     DOI: 10.1039/c7sc00601b
   * J. Koopman and S. Grimme, ACS Omega 2019, 4, 12, 15120-15133.
     DOI: 10.1021/acsomega.9b02011
   
   for metadynamics refer to:
   * S. Grimme, J. Chem. Theory Comput., 2019, 155, 2847-2862
     DOI: 10.1021/acs.jctc.9b00143
   
   for SPH calculations refer to:
   * S. Spicher and S. Grimme, J. Chem. Theory Comput., 2021, 17, 1701-1714
     DOI: 10.1021/acs.jctc.0c01306
   
   for ONIOM refer to:
   * C. Plett, A. Katbashev, S. Ehlert, S. Grimme, M. Bursch,
     Phys. Chem. Chem. Phys., 2023, 25, 17860-17868. DOI: 10.1039/D3CP02178E
   
   for DIPRO refer to:
   * J. Kohn, N. Gildemeister, S. Grimme, D. Fazzi, A. Hansen,
     J. Chem. Phys., 2023, just accepted.
   
   for PTB refer to:
   * S. Grimme, M. Mueller, A. Hansen, J. Chem. Phys., 2023, 158, 124111.
     DOI: 10.1063/5.0137838
   
   with help from (in alphabetical order)
   P. Atkinson, C. Bannwarth, F. Bohle, G. Brandenburg, E. Caldeweyher
   M. Checinski, S. Dohm, S. Ehlert, S. Ehrlich, I. Gerasimov, C. Hölzer
   A. Katbashev, J. Kohn, J. Koopman, C. Lavigne, S. Lehtola, F. März, M. Müller,
   F. Musil, H. Neugebauer, J. Pisarek, C. Plett, P. Pracht, F. Pultar,
   J. Seibert, P. Shushkov, S. Spicher, M. Stahn, M. Steiner, T. Strunk,
   J. Stückrath, T. Rose, and J. Unsleber
   
 * started run on 2025/06/23 at 11:32:00.614     
$$$$$$$$$$$$$$$$$$$$$$$$$$$$$$$$$$$$$$$$$$$$$$$$$$$$$$$$$$$$$$$$$$$$$$$$
 CONSTRAINTS & SCANS: DEBUG SECTION
$$$$$$$$$$$$$$$$$$$$$$$$$$$$$$$$$$$$$$$$$$$$$$$$$$$$$$$$$$$$$$$$$$$$$$$$
   ID    Z sym.   atoms
    1    8 O      1, 3-5
    2   16 S      2
$$$$$$$$$$$$$$$$$$$$$$$$$$$$$$$$$$$$$$$$$$$$$$$$$$$$$$$$$$$$$$$$$$$$$$$$

           -------------------------------------------------
          |                Calculation Setup                |
           -------------------------------------------------

          program call               : C:\Users\nkapa\Downloads\xtb-6.7.1pre-windows-x86_64\xtb-6.7.1\bin\xtb.EXE dft_tmp\211.xyz --gfn2 --parallel 8 --verbose --chrg -2
          coordinate file            : dft_tmp\211.xyz
          xtbhome directory          : C:\Users\nkapa\AppData\Roaming\SPB_Data
          path for xtb               : C:\Users\nkapa\Downloads\xtb-6.7.1pre-windows-x86_64\xtb-6.7.1\share\xtb
          xcontrol input file        : dft_tmp\211.xyz
          omp threads                :                     8


           -------------------------------------------------
          |                 G F N 2 - x T B                 |
           -------------------------------------------------

        Reference                      10.1021/acs.jctc.8b01176
      * Hamiltonian:
        H0-scaling (s, p, d)           1.850000    2.230000    2.230000
        zeta-weighting                 0.500000
      * Dispersion:
        s8                             2.700000
        a1                             0.520000
        a2                             5.000000
        s9                             5.000000
      * Repulsion:
        kExp                           1.500000    1.000000
        rExp                           1.000000
      * Coulomb:
        alpha                          2.000000
        third order                    shell-resolved
        anisotropic                    true
        a3                             3.000000
        a5                             4.000000
        cn-shift                       1.200000
        cn-exp                         4.000000
        max-rad                        5.000000


          ...................................................
          :                      SETUP                      :
          :.................................................:
          :  # basis functions                  26          :
          :  # atomic orbitals                  25          :
          :  # shells                           11          :
          :  # electrons                        32          :
          :  max. iterations                   250          :
          :  Hamiltonian                  GFN2-xTB          :
          :  restarted?                      false          :
          :  GBSA solvation                  false          :
          :  PC potential                    false          :
          :  electronic temp.          300.0000000     K    :
          :  accuracy                    1.0000000          :
          :  -> integral cutoff          0.2500000E+02      :
          :  -> integral neglect         0.1000000E-07      :
          :  -> SCF convergence          0.1000000E-05 Eh   :
          :  -> wf. convergence          0.1000000E-03 e    :
          :  Broyden damping             0.4000000          :
          :  net charge                         -2          :
          :  unpaired electrons                  0          :
          ...................................................

 iter      E             dE          RMSdq      gap      omega  full diag
   1    -19.7936688 -0.197937E+02  0.999E+00    6.35       0.0  T
   2    -19.8111594 -0.174906E-01  0.577E+00    5.96       1.0  T
   3    -19.8141990 -0.303961E-02  0.159E+00    5.80       1.0  T
   4    -19.8148692 -0.670163E-03  0.483E-01    5.78       1.0  T
   5    -19.8150579 -0.188759E-03  0.228E-01    5.78       1.0  T
   6    -19.8151060 -0.480328E-04  0.597E-02    5.79       1.0  T
   7    -19.8151084 -0.248159E-05  0.174E-02    5.78       2.6  T
   8    -19.8151086 -0.148730E-06  0.855E-03    5.78       5.2  T
   9    -19.8151086 -0.294768E-07  0.201E-03    5.78      22.3  T
  10    -19.8151086 -0.280530E-08  0.670E-04    5.78      66.7  T
  11    -19.8151086 -0.206676E-09  0.388E-04    5.78     115.3  T

   *** convergence criteria satisfied after 11 iterations ***

         #    Occupation            Energy/Eh            Energy/eV
      -------------------------------------------------------------
         1        2.0000           -0.3309913              -9.0067
       ...           ...                  ...                  ...
        10        2.0000           -0.0319024              -0.8681
        11        2.0000           -0.0160514              -0.4368
        12        2.0000           -0.0091386              -0.2487
        13        2.0000            0.0045917               0.1249
        14        2.0000            0.0126358               0.3438
        15        2.0000            0.0154895               0.4215
        16        2.0000            0.0198585               0.5404 (HOMO)
        17                          0.2322397               6.3196 (LUMO)
        18                          0.3650147               9.9326
        19                          0.3709633              10.0944
        20                          0.3765072              10.2453
        21                          0.5929518              16.1350
       ...                                ...                  ...
        25                          1.3940518              37.9341
      -------------------------------------------------------------
                  HL-Gap            0.2123812 Eh            5.7792 eV
             Fermi-level            0.1260491 Eh            3.4300 eV

 SCC (total)                   0 d,  0 h,  0 min,  0.010 sec
 SCC setup                      ...        0 min,  0.000 sec (  0.000%)
 Dispersion                     ...        0 min,  0.000 sec (  0.000%)
 classical contributions        ...        0 min,  0.000 sec (  0.000%)
 integral evaluation            ...        0 min,  0.002 sec ( 20.000%)
 iterations                     ...        0 min,  0.004 sec ( 39.999%)
 molecular gradient             ...        0 min,  0.004 sec ( 40.001%)
 printout                       ...        0 min,  0.000 sec (  0.000%)

         :::::::::::::::::::::::::::::::::::::::::::::::::::::
         ::                     SUMMARY                     ::
         :::::::::::::::::::::::::::::::::::::::::::::::::::::
         :: total energy             -19.783286876334 Eh    ::
         :: gradient norm              0.135629918924 Eh/a0 ::
         :: HOMO-LUMO gap              5.779187872547 eV    ::
         ::.................................................::
         :: HOMO orbital eigv.         0.540376089081 eV    ::
         :: LUMO orbital eigv.         6.319563961629 eV    ::
         ::.................................................::
         :: SCC energy               -19.815108345625 Eh    ::
         :: -> isotropic ES            0.618423565396 Eh    ::
         :: -> anisotropic ES         -0.023922272882 Eh    ::
         :: -> anisotropic XC         -0.007169797756 Eh    ::
         :: -> dispersion             -0.004352934432 Eh    ::
         :: repulsion energy           0.031821469292 Eh    ::
         :: add. restraining           0.000000000000 Eh    ::
         :: total charge              -2.000000000000 e     ::
         ::.................................................::
         :: atomisation energy         1.575472937807 Eh    ::
         :::::::::::::::::::::::::::::::::::::::::::::::::::::

           -------------------------------------------------
          |                Property Printout                |
           -------------------------------------------------

    * Orbital Energies and Occupations

         #    Occupation            Energy/Eh            Energy/eV
      -------------------------------------------------------------
         1        2.0000           -0.3309913              -9.0067
       ...           ...                  ...                  ...
         4        2.0000           -0.2186783              -5.9505
         5        2.0000           -0.1992146              -5.4209
         6        2.0000           -0.0997767              -2.7151
         7        2.0000           -0.0945034              -2.5716
         8        2.0000           -0.0896550              -2.4396
         9        2.0000           -0.0363364              -0.9888
        10        2.0000           -0.0319024              -0.8681
        11        2.0000           -0.0160514              -0.4368
        12        2.0000           -0.0091386              -0.2487
        13        2.0000            0.0045917               0.1249
        14        2.0000            0.0126358               0.3438
        15        2.0000            0.0154895               0.4215
        16        2.0000            0.0198585               0.5404 (HOMO)
        17                          0.2322397               6.3196 (LUMO)
        18                          0.3650147               9.9326
        19                          0.3709633              10.0944
        20                          0.3765072              10.2453
        21                          0.5929518              16.1350
        22                          0.6013974              16.3649
        23                          0.9420694              25.6350
        24                          1.1758448              31.9964
        25                          1.3940518              37.9341
      -------------------------------------------------------------
                  HL-Gap            0.2123812 Eh            5.7792 eV
             Fermi-level            0.1260491 Eh            3.4300 eV

     #   Z          covCN         q      C6AA      α(0)
     1   8 O        0.859    -0.731    29.567     7.290
     2  16 S        3.428     1.116   103.391    17.114
     3   8 O        0.859    -0.731    29.567     7.290
     4   8 O        0.854    -0.827    32.417     7.634
     5   8 O        0.854    -0.827    32.417     7.634

 Mol. C6AA /au·bohr⁶  :       1039.023591
 Mol. C8AA /au·bohr⁸  :      28902.599031
 Mol. α(0) /au        :         46.961380


Wiberg/Mayer (AO) data.
largest (>0.10) Wiberg bond orders for each atom

 ---------------------------------------------------------------------------
     #   Z sym  total        # sym  WBO       # sym  WBO       # sym  WBO
 ---------------------------------------------------------------------------
     1   8 O    1.697 --     2 S    1.376     4 O    0.111     5 O    0.111
     2  16 S    5.020 --     1 O    1.376     3 O    1.376     5 O    1.134
                             4 O    1.134
     3   8 O    1.697 --     2 S    1.376     4 O    0.111     5 O    0.111
     4   8 O    1.488 --     2 S    1.134     5 O    0.131     3 O    0.111
                             1 O    0.111
     5   8 O    1.488 --     2 S    1.134     4 O    0.131     3 O    0.111
                             1 O    0.111
 ---------------------------------------------------------------------------

Topologies differ in total number of bonds
Writing topology from bond orders to xtbtopo.mol

molecular dipole:
                 x           y           z       tot (Debye)
 q only:       -0.050      -0.475       0.039
   full:       -0.054      -0.511       0.042       1.311
molecular quadrupole (traceless):
                xx          xy          yy          xz          yz          zz
 q only:       -2.400       0.302       0.065       0.487       0.133       2.335
  q+dip:       -2.202       0.280       0.082       0.444       0.119       2.119
   full:       -2.223       0.280       0.056       0.451       0.124       2.167


           -------------------------------------------------
          | TOTAL ENERGY              -19.783286876334 Eh   |
          | GRADIENT NORM               0.135629918924 Eh/α |
          | HOMO-LUMO GAP               5.779187872547 eV   |
           -------------------------------------------------
########################################################################
[WARNING] Runtime exception occurred
-2- restart_readRestart: Dimension missmatch in restart file.
-1- restart_readRestart: Number of electron missmatch in restart file.
########################################################################

------------------------------------------------------------------------
 unit  open   action     filename
  129 false : read       dft_tmp\211.xyz
  129 false : read       dft_tmp\211.xyz
  129 false : read       dft_tmp\211.xyz
  129 false : read       C:\Users\nkapa\Downloads\xtb-6.7.1pre-windows-x86_64\xtb-6.7.1\share\xtb\param_gfn2-xtb.txt
  129 false : read       xtbrestart
  129 false : replaced   charges
  129 false : replaced   wbo
  129 false : replaced   xtbtopo.mol
  129 false : replaced   xtbrestart

------------------------------------------------------------------------
 * finished run on 2025/06/23 at 11:32:00.661     
------------------------------------------------------------------------
 total:
 * wall-time:     0 d,  0 h,  0 min,  0.045 sec
 *  cpu-time:     0 d,  0 h,  0 min,  0.328 sec
 * ratio c/w:     7.292 speedup
 SCF:
 * wall-time:     0 d,  0 h,  0 min,  0.011 sec
 *  cpu-time:     0 d,  0 h,  0 min,  0.109 sec
 * ratio c/w:     9.943 speedup

normal termination of xtb
