      -----------------------------------------------------------      
     |                   =====================                   |     
     |                           x T B                           |     
     |                   =====================                   |     
     |                         S. Grimme                         |     
     |          Mulliken Center for Theoretical Chemistry        |     
     |                    University of Bonn                     |     
      -----------------------------------------------------------      

   * xtb version 6.7.1pre (5071a88) compiled by 'Marcel@Raven' on 2024-07-23

   xtb is free software: you can redistribute it and/or modify it under
   the terms of the GNU Lesser General Public License as published by
   the Free Software Foundation, either version 3 of the License, or
   (at your option) any later version.
   
   xtb is distributed in the hope that it will be useful,
   but WITHOUT ANY WARRANTY; without even the implied warranty of
   MERCHANTABILITY or FITNESS FOR A PARTICULAR PURPOSE.  See the
   GNU Lesser General Public License for more details.
   
   Cite this work as:
   * C. Bannwarth, E. Caldeweyher, S. Ehlert, A. Hansen, P. Pracht,
     J. Seibert, S. Spicher, S. Grimme, WIREs Comput. Mol. Sci., 2020, 11,
     e01493. DOI: 10.1002/wcms.1493
   
   for GFN2-xTB:
   * C. Bannwarth, S. Ehlert and S. Grimme., J. Chem. Theory Comput., 2019,
     15, 1652-1671. DOI: 10.1021/acs.jctc.8b01176
   for GFN1-xTB:
   * S. Grimme, C. Bannwarth, P. Shushkov, J. Chem. Theory Comput., 2017,
     13, 1989-2009. DOI: 10.1021/acs.jctc.7b00118
   for GFN0-xTB:
   * P. Pracht, E. Caldeweyher, S. Ehlert, S. Grimme, ChemRxiv, 2019, preprint.
     DOI: 10.26434/chemrxiv.8326202.v1
   for GFN-FF:
   * S. Spicher and S. Grimme, Angew. Chem. Int. Ed., 2020, 59, 15665-15673.
     DOI: 10.1002/anie.202004239
   
   for ALPB and GBSA implicit solvation:
   * S. Ehlert, M. Stahn, S. Spicher, S. Grimme, J. Chem. Theory Comput.,
     2021, 17, 4250-4261. DOI: 10.1021/acs.jctc.1c00471
   
   for ddCOSMO and CPCM-X implicit solvation:
   * M. Stahn, S. Ehlert, S. Grimme, J. Phys. Chem. A,
     2023, XX, XXXX-XXXX. DOI: 10.1021/acs.jpca.3c04382
   
   for DFT-D4:
   * E. Caldeweyher, C. Bannwarth and S. Grimme, J. Chem. Phys., 2017,
     147, 034112. DOI: 10.1063/1.4993215
   * E. Caldeweyher, S. Ehlert, A. Hansen, H. Neugebauer, S. Spicher,
     C. Bannwarth and S. Grimme, J. Chem. Phys., 2019, 150, 154122.
     DOI: 10.1063/1.5090222
   * E. Caldeweyher, J.-M. Mewes, S. Ehlert and S. Grimme, Phys. Chem. Chem. Phys.
     2020, 22, 8499-8512. DOI: 10.1039/D0CP00502A
   
   for sTDA-xTB:
   * S. Grimme and C. Bannwarth, J. Chem. Phys., 2016, 145, 054103.
     DOI: 10.1063/1.4959605
   
   in the mass-spec context:
   * V. Asgeirsson, C. Bauer and S. Grimme, Chem. Sci., 2017, 8, 4879.
     DOI: 10.1039/c7sc00601b
   * J. Koopman and S. Grimme, ACS Omega 2019, 4, 12, 15120-15133.
     DOI: 10.1021/acsomega.9b02011
   
   for metadynamics refer to:
   * S. Grimme, J. Chem. Theory Comput., 2019, 155, 2847-2862
     DOI: 10.1021/acs.jctc.9b00143
   
   for SPH calculations refer to:
   * S. Spicher and S. Grimme, J. Chem. Theory Comput., 2021, 17, 1701-1714
     DOI: 10.1021/acs.jctc.0c01306
   
   for ONIOM refer to:
   * C. Plett, A. Katbashev, S. Ehlert, S. Grimme, M. Bursch,
     Phys. Chem. Chem. Phys., 2023, 25, 17860-17868. DOI: 10.1039/D3CP02178E
   
   for DIPRO refer to:
   * J. Kohn, N. Gildemeister, S. Grimme, D. Fazzi, A. Hansen,
     J. Chem. Phys., 2023, just accepted.
   
   for PTB refer to:
   * S. Grimme, M. Mueller, A. Hansen, J. Chem. Phys., 2023, 158, 124111.
     DOI: 10.1063/5.0137838
   
   with help from (in alphabetical order)
   P. Atkinson, C. Bannwarth, F. Bohle, G. Brandenburg, E. Caldeweyher
   M. Checinski, S. Dohm, S. Ehlert, S. Ehrlich, I. Gerasimov, C. Hölzer
   A. Katbashev, J. Kohn, J. Koopman, C. Lavigne, S. Lehtola, F. März, M. Müller,
   F. Musil, H. Neugebauer, J. Pisarek, C. Plett, P. Pracht, F. Pultar,
   J. Seibert, P. Shushkov, S. Spicher, M. Stahn, M. Steiner, T. Strunk,
   J. Stückrath, T. Rose, and J. Unsleber
   
 * started run on 2025/06/23 at 11:32:00.730     
$$$$$$$$$$$$$$$$$$$$$$$$$$$$$$$$$$$$$$$$$$$$$$$$$$$$$$$$$$$$$$$$$$$$$$$$
 CONSTRAINTS & SCANS: DEBUG SECTION
$$$$$$$$$$$$$$$$$$$$$$$$$$$$$$$$$$$$$$$$$$$$$$$$$$$$$$$$$$$$$$$$$$$$$$$$
   ID    Z sym.   atoms
    1    6 C      1-6
    2    8 O      7-13
    3   11 Na     14
    4    1 H      15-25
$$$$$$$$$$$$$$$$$$$$$$$$$$$$$$$$$$$$$$$$$$$$$$$$$$$$$$$$$$$$$$$$$$$$$$$$

           -------------------------------------------------
          |                Calculation Setup                |
           -------------------------------------------------

          program call               : C:\Users\nkapa\Downloads\xtb-6.7.1pre-windows-x86_64\xtb-6.7.1\bin\xtb.EXE dft_tmp\212.xyz --gfn2 --parallel 8 --verbose
          coordinate file            : dft_tmp\212.xyz
          xtbhome directory          : C:\Users\nkapa\AppData\Roaming\SPB_Data
          path for xtb               : C:\Users\nkapa\Downloads\xtb-6.7.1pre-windows-x86_64\xtb-6.7.1\share\xtb
          xcontrol input file        : dft_tmp\212.xyz
          omp threads                :                     8


molecular fragmentation (1/2 indicates fragments):
1111111111111111111111121
# atoms in fragment 1/2:    24     1
 fragment masses (1/2) :      217.13        1.01
CMA distance (Bohr)    :   7.147
constraining FC (au)   :  0.0500

           -------------------------------------------------
          |                 G F N 2 - x T B                 |
           -------------------------------------------------

        Reference                      10.1021/acs.jctc.8b01176
      * Hamiltonian:
        H0-scaling (s, p, d)           1.850000    2.230000    2.230000
        zeta-weighting                 0.500000
      * Dispersion:
        s8                             2.700000
        a1                             0.520000
        a2                             5.000000
        s9                             5.000000
      * Repulsion:
        kExp                           1.500000    1.000000
        rExp                           1.000000
      * Coulomb:
        alpha                          2.000000
        third order                    shell-resolved
        anisotropic                    true
        a3                             3.000000
        a5                             4.000000
        cn-shift                       1.200000
        cn-exp                         4.000000
        max-rad                        5.000000


          ...................................................
          :                      SETUP                      :
          :.................................................:
          :  # basis functions                  67          :
          :  # atomic orbitals                  67          :
          :  # shells                           39          :
          :  # electrons                        78          :
          :  max. iterations                   250          :
          :  Hamiltonian                  GFN2-xTB          :
          :  restarted?                      false          :
          :  GBSA solvation                  false          :
          :  PC potential                    false          :
          :  electronic temp.          300.0000000     K    :
          :  accuracy                    1.0000000          :
          :  -> integral cutoff          0.2500000E+02      :
          :  -> integral neglect         0.1000000E-07      :
          :  -> SCF convergence          0.1000000E-05 Eh   :
          :  -> wf. convergence          0.1000000E-03 e    :
          :  Broyden damping             0.4000000          :
          :  net charge                          0          :
          :  unpaired electrons                  0          :
          ...................................................

 iter      E             dE          RMSdq      gap      omega  full diag
   1    -47.1284139 -0.471284E+02  0.721E+00    4.58       0.0  T
   2    -47.3507040 -0.222290E+00  0.278E+00    3.69       1.0  T
   3    -47.3667212 -0.160172E-01  0.163E+00    4.04       1.0  T
   4    -47.3679886 -0.126741E-02  0.583E-01    3.35       1.0  T
   5    -47.3699716 -0.198307E-02  0.277E-01    3.62       1.0  T
   6    -47.3703451 -0.373476E-03  0.852E-02    3.66       1.0  T
   7    -47.3703614 -0.163079E-04  0.420E-02    3.66       1.0  T
   8    -47.3703636 -0.217710E-05  0.124E-02    3.66       1.6  T
   9    -47.3703639 -0.306973E-06  0.563E-03    3.67       3.6  T
  10    -47.3703641 -0.199626E-06  0.135E-03    3.66      14.8  T
  11    -47.3703641 -0.728469E-08  0.677E-04    3.66      29.5  T
  12    -47.3703641 -0.257030E-08  0.157E-04    3.66     127.2  T

   *** convergence criteria satisfied after 12 iterations ***

         #    Occupation            Energy/Eh            Energy/eV
      -------------------------------------------------------------
         1        2.0000           -0.7852963             -21.3690
       ...           ...                  ...                  ...
        33        2.0000           -0.4698274             -12.7847
        34        2.0000           -0.4531397             -12.3306
        35        2.0000           -0.4387363             -11.9386
        36        2.0000           -0.4288331             -11.6691
        37        2.0000           -0.3378664              -9.1938
        38        2.0000           -0.3292612              -8.9597
        39        2.0000           -0.3130840              -8.5194 (HOMO)
        40                         -0.1784955              -4.8571 (LUMO)
        41                         -0.1684615              -4.5841
        42                         -0.1302847              -3.5452
        43                         -0.0827124              -2.2507
        44                         -0.0690332              -1.8785
       ...                                ...                  ...
        67                          0.7617010              20.7269
      -------------------------------------------------------------
                  HL-Gap            0.1345885 Eh            3.6623 eV
             Fermi-level           -0.2457898 Eh           -6.6883 eV

 SCC (total)                   0 d,  0 h,  0 min,  0.035 sec
 SCC setup                      ...        0 min,  0.001 sec (  2.858%)
 Dispersion                     ...        0 min,  0.001 sec (  2.857%)
 classical contributions        ...        0 min,  0.000 sec (  0.000%)
 integral evaluation            ...        0 min,  0.002 sec (  5.714%)
 iterations                     ...        0 min,  0.025 sec ( 71.429%)
 molecular gradient             ...        0 min,  0.005 sec ( 14.286%)
 printout                       ...        0 min,  0.001 sec (  2.857%)

         :::::::::::::::::::::::::::::::::::::::::::::::::::::
         ::                     SUMMARY                     ::
         :::::::::::::::::::::::::::::::::::::::::::::::::::::
         :: total energy             -45.015998653252 Eh    ::
         :: gradient norm              4.381922538450 Eh/a0 ::
         :: HOMO-LUMO gap              3.662339341349 eV    ::
         ::.................................................::
         :: HOMO orbital eigv.        -8.519449787795 eV    ::
         :: LUMO orbital eigv.        -4.857110446447 eV    ::
         ::.................................................::
         :: SCC energy               -47.370218015448 Eh    ::
         :: -> isotropic ES            0.292262743473 Eh    ::
         :: -> anisotropic ES          0.009437876289 Eh    ::
         :: -> anisotropic XC         -0.008796714660 Eh    ::
         :: -> dispersion             -0.020722774181 Eh    ::
         :: repulsion energy           2.354219362196 Eh    ::
         :: add. restraining           0.000000000000 Eh    ::
         :: total charge               0.000000000000 e     ::
         ::.................................................::
         :: atomisation energy         4.422765086848 Eh    ::
         :::::::::::::::::::::::::::::::::::::::::::::::::::::

           -------------------------------------------------
          |                Property Printout                |
           -------------------------------------------------

    * Orbital Energies and Occupations

         #    Occupation            Energy/Eh            Energy/eV
      -------------------------------------------------------------
         1        2.0000           -0.7852963             -21.3690
       ...           ...                  ...                  ...
        27        2.0000           -0.5198576             -14.1460
        28        2.0000           -0.5174852             -14.0815
        29        2.0000           -0.5125687             -13.9477
        30        2.0000           -0.5021242             -13.6635
        31        2.0000           -0.4926808             -13.4065
        32        2.0000           -0.4752116             -12.9312
        33        2.0000           -0.4698274             -12.7847
        34        2.0000           -0.4531397             -12.3306
        35        2.0000           -0.4387363             -11.9386
        36        2.0000           -0.4288331             -11.6691
        37        2.0000           -0.3378664              -9.1938
        38        2.0000           -0.3292612              -8.9597
        39        2.0000           -0.3130840              -8.5194 (HOMO)
        40                         -0.1784955              -4.8571 (LUMO)
        41                         -0.1684615              -4.5841
        42                         -0.1302847              -3.5452
        43                         -0.0827124              -2.2507
        44                         -0.0690332              -1.8785
        45                         -0.0552420              -1.5032
        46                         -0.0373187              -1.0155
        47                         -0.0167949              -0.4570
        48                         -0.0070328              -0.1914
        49                          0.0151535               0.4123
        50                          0.0235253               0.6402
       ...                                ...                  ...
        67                          0.7617010              20.7269
      -------------------------------------------------------------
                  HL-Gap            0.1345885 Eh            3.6623 eV
             Fermi-level           -0.2457898 Eh           -6.6883 eV

     #   Z          covCN         q      C6AA      α(0)
     1   6 C        4.422     0.033    19.930     6.340
     2   6 C        4.480    -0.006    20.603     6.446
     3   6 C        4.479    -0.108    22.460     6.731
     4   6 C        4.480    -0.082    21.970     6.657
     5   6 C        4.483     0.026    20.053     6.360
     6   6 C        2.782     0.314    21.673     7.625
     7   8 O        0.856    -0.486    23.488     6.498
     8   8 O        0.852    -0.593    25.955     6.830
     9   8 O        2.154    -0.437    21.524     6.266
    10   8 O        2.198    -0.356    19.971     6.036
    11   8 O        2.288    -0.381    20.426     6.104
    12   8 O        1.887    -0.412    21.035     6.194
    13   8 O        1.653    -0.410    21.036     6.191
    14  11 Na       9.569     0.905    10.693     5.996
    15   1 H        0.932     0.067     2.119     2.276
    16   1 H        1.488     0.055     2.243     2.338
    17   1 H        1.720     0.049     2.323     2.379
    18   1 H        1.714     0.097     1.802     2.096
    19   1 H        1.727     0.097     1.800     2.095
    20   1 H        1.690     0.034     2.520     2.478
    21   1 H        0.801     0.319     0.666     1.282
    22   1 H        0.809     0.307     0.700     1.314
    23   1 H        0.802     0.331     0.636     1.253
    24   1 H        0.801     0.322     0.658     1.275
    25   1 H        0.801     0.317     0.674     1.290

 Mol. C6AA /au·bohr⁶  :       5796.391965
 Mol. C8AA /au·bohr⁸  :     141100.371549
 Mol. α(0) /au        :        110.347743


Wiberg/Mayer (AO) data.
largest (>0.10) Wiberg bond orders for each atom

 ---------------------------------------------------------------------------
     #   Z sym  total        # sym  WBO       # sym  WBO       # sym  WBO
 ---------------------------------------------------------------------------
     1   6 C    3.963 --    13 O    1.023     2 C    0.979    15 H    0.963
                            16 H    0.958
     2   6 C    3.962 --    12 O    1.013     1 C    0.979     3 C    0.972
                            17 H    0.959
     3   6 C    3.960 --    11 O    1.025     2 C    0.972     4 C    0.963
                            18 H    0.938
     4   6 C    3.953 --    10 O    1.034     3 C    0.963     5 C    0.953
                            19 H    0.948
     5   6 C    3.918 --     9 O    0.999     4 C    0.953    20 H    0.951
                             6 C    0.913
     6   6 C    3.955 --     7 O    1.591     8 O    1.422     5 C    0.913
     7   8 O    1.952 --     6 C    1.591     8 O    0.263
     8   8 O    1.800 --     6 C    1.422     7 O    0.263
     9   8 O    2.019 --     5 C    0.999    21 H    0.874
    10   8 O    2.039 --     4 C    1.034    22 H    0.882
    11   8 O    2.041 --     3 C    1.025    23 H    0.877
    12   8 O    2.001 --     2 C    1.013    24 H    0.883
    13   8 O    1.997 --     1 C    1.023    25 H    0.887
    14  11 Na   0.187
    15   1 H    0.996 --     1 C    0.963
    16   1 H    0.997 --     1 C    0.958
    17   1 H    0.998 --     2 C    0.959
    18   1 H    0.991 --     3 C    0.938
    19   1 H    0.991 --     4 C    0.948
    20   1 H    0.999 --     5 C    0.951
    21   1 H    0.898 --     9 O    0.874
    22   1 H    0.906 --    10 O    0.882
    23   1 H    0.890 --    11 O    0.877
    24   1 H    0.896 --    12 O    0.883
    25   1 H    0.900 --    13 O    0.887
 ---------------------------------------------------------------------------

Topologies differ in total number of bonds
Writing topology from bond orders to xtbtopo.mol

molecular dipole:
                 x           y           z       tot (Debye)
 q only:        5.582      -3.828       0.615
   full:        6.036      -4.515       0.466      19.197
molecular quadrupole (traceless):
                xx          xy          yy          xz          yz          zz
 q only:      -20.040      26.184       5.056      -8.368       2.173      14.984
  q+dip:      -21.357      29.316       6.994      -7.687       1.692      14.363
   full:      -21.234      29.057       6.371      -8.203       1.939      14.863


           -------------------------------------------------
          | TOTAL ENERGY              -45.015998653252 Eh   |
          | GRADIENT NORM               4.381922538450 Eh/α |
          | HOMO-LUMO GAP               3.662339341349 eV   |
           -------------------------------------------------
########################################################################
[WARNING] Runtime exception occurred
-2- restart_readRestart: Dimension missmatch in restart file.
-1- restart_readRestart: Number of electron missmatch in restart file.
########################################################################

------------------------------------------------------------------------
 unit  open   action     filename
  129 false : read       dft_tmp\212.xyz
  129 false : read       dft_tmp\212.xyz
  129 false : read       dft_tmp\212.xyz
  129 false : read       C:\Users\nkapa\Downloads\xtb-6.7.1pre-windows-x86_64\xtb-6.7.1\share\xtb\param_gfn2-xtb.txt
  129 false : read       xtbrestart
  129 false : replaced   charges
  129 false : replaced   wbo
  129 false : replaced   xtbtopo.mol
  129 false : replaced   xtbrestart

------------------------------------------------------------------------
 * finished run on 2025/06/23 at 11:32:00.810     
------------------------------------------------------------------------
 total:
 * wall-time:     0 d,  0 h,  0 min,  0.078 sec
 *  cpu-time:     0 d,  0 h,  0 min,  0.484 sec
 * ratio c/w:     6.210 speedup
 SCF:
 * wall-time:     0 d,  0 h,  0 min,  0.035 sec
 *  cpu-time:     0 d,  0 h,  0 min,  0.250 sec
 * ratio c/w:     7.143 speedup

normal termination of xtb
