26

C 3.188853 -0.693932 0.631531
O 2.034746 -0.719111 -0.178867
C 1.722351 0.588449 -0.634694
C 1.149520 0.495224 -2.036055
O -0.238096 0.287918 -1.938957
C -0.649061 0.858956 -0.716142
C -1.430941 -0.132299 0.109167
C -0.910422 0.134022 1.511454
O 0.417906 0.585550 1.415322
C 0.559886 1.174141 0.139938
O -2.818678 0.133606 0.008751
C -3.559340 -1.015872 0.354930
H 3.345332 -1.706168 1.057222
H 4.086514 -0.436795 0.027304
H 3.076307 0.017222 1.480187
H 2.595752 1.286652 -0.641932
H 1.336461 1.441679 -2.591062
H 1.616023 -0.338329 -2.603722
H -1.239135 1.784011 -0.908111
H -1.155620 -1.169761 -0.205320
H -1.521995 0.913722 2.017910
H -0.943643 -0.794920 2.119211
H 0.683829 2.275348 0.246362
H -4.638313 -0.759022 0.339696
H -3.396591 -1.830209 -0.385129
H -3.311644 -1.367330 1.381007
