23

C 2.620547 -1.447560 1.982390
C 2.322082 -2.568913 1.202713
C 1.132300 -2.616386 0.470360
C 0.240095 -1.539132 0.514050
C 0.555844 -0.391209 1.263912
C 1.742693 -0.359326 2.011132
N -0.258680 0.787426 1.155455
C -0.965787 1.059470 -0.065359
C -1.133097 2.382377 -0.501121
C -1.670045 2.642986 -1.765827
C -2.035488 1.585489 -2.604017
C -1.889761 0.264773 -2.169680
C -1.374032 -0.000268 -0.896026
S -1.370674 -1.680935 -0.265441
H 3.540622 -1.414762 2.551476
H 3.006144 -3.407288 1.177522
H 0.890049 -3.502740 -0.102073
H 2.003660 0.520761 2.585220
H -0.100238 1.571026 1.829256
H -0.814821 3.207825 0.123032
H -1.787325 3.664775 -2.102969
H -2.445206 1.789902 -3.584730
H -2.208883 -0.548292 -2.809270
