      -----------------------------------------------------------      
     |                   =====================                   |     
     |                           x T B                           |     
     |                   =====================                   |     
     |                         S. Grimme                         |     
     |          Mulliken Center for Theoretical Chemistry        |     
     |                    University of Bonn                     |     
      -----------------------------------------------------------      

   * xtb version 6.7.1pre (5071a88) compiled by 'Marcel@Raven' on 2024-07-23

   xtb is free software: you can redistribute it and/or modify it under
   the terms of the GNU Lesser General Public License as published by
   the Free Software Foundation, either version 3 of the License, or
   (at your option) any later version.
   
   xtb is distributed in the hope that it will be useful,
   but WITHOUT ANY WARRANTY; without even the implied warranty of
   MERCHANTABILITY or FITNESS FOR A PARTICULAR PURPOSE.  See the
   GNU Lesser General Public License for more details.
   
   Cite this work as:
   * C. Bannwarth, E. Caldeweyher, S. Ehlert, A. Hansen, P. Pracht,
     J. Seibert, S. Spicher, S. Grimme, WIREs Comput. Mol. Sci., 2020, 11,
     e01493. DOI: 10.1002/wcms.1493
   
   for GFN2-xTB:
   * C. Bannwarth, S. Ehlert and S. Grimme., J. Chem. Theory Comput., 2019,
     15, 1652-1671. DOI: 10.1021/acs.jctc.8b01176
   for GFN1-xTB:
   * S. Grimme, C. Bannwarth, P. Shushkov, J. Chem. Theory Comput., 2017,
     13, 1989-2009. DOI: 10.1021/acs.jctc.7b00118
   for GFN0-xTB:
   * P. Pracht, E. Caldeweyher, S. Ehlert, S. Grimme, ChemRxiv, 2019, preprint.
     DOI: 10.26434/chemrxiv.8326202.v1
   for GFN-FF:
   * S. Spicher and S. Grimme, Angew. Chem. Int. Ed., 2020, 59, 15665-15673.
     DOI: 10.1002/anie.202004239
   
   for ALPB and GBSA implicit solvation:
   * S. Ehlert, M. Stahn, S. Spicher, S. Grimme, J. Chem. Theory Comput.,
     2021, 17, 4250-4261. DOI: 10.1021/acs.jctc.1c00471
   
   for ddCOSMO and CPCM-X implicit solvation:
   * M. Stahn, S. Ehlert, S. Grimme, J. Phys. Chem. A,
     2023, XX, XXXX-XXXX. DOI: 10.1021/acs.jpca.3c04382
   
   for DFT-D4:
   * E. Caldeweyher, C. Bannwarth and S. Grimme, J. Chem. Phys., 2017,
     147, 034112. DOI: 10.1063/1.4993215
   * E. Caldeweyher, S. Ehlert, A. Hansen, H. Neugebauer, S. Spicher,
     C. Bannwarth and S. Grimme, J. Chem. Phys., 2019, 150, 154122.
     DOI: 10.1063/1.5090222
   * E. Caldeweyher, J.-M. Mewes, S. Ehlert and S. Grimme, Phys. Chem. Chem. Phys.
     2020, 22, 8499-8512. DOI: 10.1039/D0CP00502A
   
   for sTDA-xTB:
   * S. Grimme and C. Bannwarth, J. Chem. Phys., 2016, 145, 054103.
     DOI: 10.1063/1.4959605
   
   in the mass-spec context:
   * V. Asgeirsson, C. Bauer and S. Grimme, Chem. Sci., 2017, 8, 4879.
     DOI: 10.1039/c7sc00601b
   * J. Koopman and S. Grimme, ACS Omega 2019, 4, 12, 15120-15133.
     DOI: 10.1021/acsomega.9b02011
   
   for metadynamics refer to:
   * S. Grimme, J. Chem. Theory Comput., 2019, 155, 2847-2862
     DOI: 10.1021/acs.jctc.9b00143
   
   for SPH calculations refer to:
   * S. Spicher and S. Grimme, J. Chem. Theory Comput., 2021, 17, 1701-1714
     DOI: 10.1021/acs.jctc.0c01306
   
   for ONIOM refer to:
   * C. Plett, A. Katbashev, S. Ehlert, S. Grimme, M. Bursch,
     Phys. Chem. Chem. Phys., 2023, 25, 17860-17868. DOI: 10.1039/D3CP02178E
   
   for DIPRO refer to:
   * J. Kohn, N. Gildemeister, S. Grimme, D. Fazzi, A. Hansen,
     J. Chem. Phys., 2023, just accepted.
   
   for PTB refer to:
   * S. Grimme, M. Mueller, A. Hansen, J. Chem. Phys., 2023, 158, 124111.
     DOI: 10.1063/5.0137838
   
   with help from (in alphabetical order)
   P. Atkinson, C. Bannwarth, F. Bohle, G. Brandenburg, E. Caldeweyher
   M. Checinski, S. Dohm, S. Ehlert, S. Ehrlich, I. Gerasimov, C. Hölzer
   A. Katbashev, J. Kohn, J. Koopman, C. Lavigne, S. Lehtola, F. März, M. Müller,
   F. Musil, H. Neugebauer, J. Pisarek, C. Plett, P. Pracht, F. Pultar,
   J. Seibert, P. Shushkov, S. Spicher, M. Stahn, M. Steiner, T. Strunk,
   J. Stückrath, T. Rose, and J. Unsleber
   
 * started run on 2025/06/23 at 11:32:03.068     
$$$$$$$$$$$$$$$$$$$$$$$$$$$$$$$$$$$$$$$$$$$$$$$$$$$$$$$$$$$$$$$$$$$$$$$$
 CONSTRAINTS & SCANS: DEBUG SECTION
$$$$$$$$$$$$$$$$$$$$$$$$$$$$$$$$$$$$$$$$$$$$$$$$$$$$$$$$$$$$$$$$$$$$$$$$
   ID    Z sym.   atoms
    1    6 C      1-6, 8-13
    2    7 N      7
    3   16 S      14
    4    1 H      15-23
$$$$$$$$$$$$$$$$$$$$$$$$$$$$$$$$$$$$$$$$$$$$$$$$$$$$$$$$$$$$$$$$$$$$$$$$

           -------------------------------------------------
          |                Calculation Setup                |
           -------------------------------------------------

          program call               : C:\Users\nkapa\Downloads\xtb-6.7.1pre-windows-x86_64\xtb-6.7.1\bin\xtb.EXE dft_tmp\229.xyz --gfn2 --parallel 8 --verbose
          coordinate file            : dft_tmp\229.xyz
          xtbhome directory          : C:\Users\nkapa\AppData\Roaming\SPB_Data
          path for xtb               : C:\Users\nkapa\Downloads\xtb-6.7.1pre-windows-x86_64\xtb-6.7.1\share\xtb
          xcontrol input file        : dft_tmp\229.xyz
          omp threads                :                     8


           -------------------------------------------------
          |                 G F N 2 - x T B                 |
           -------------------------------------------------

        Reference                      10.1021/acs.jctc.8b01176
      * Hamiltonian:
        H0-scaling (s, p, d)           1.850000    2.230000    2.230000
        zeta-weighting                 0.500000
      * Dispersion:
        s8                             2.700000
        a1                             0.520000
        a2                             5.000000
        s9                             5.000000
      * Repulsion:
        kExp                           1.500000    1.000000
        rExp                           1.000000
      * Coulomb:
        alpha                          2.000000
        third order                    shell-resolved
        anisotropic                    true
        a3                             3.000000
        a5                             4.000000
        cn-shift                       1.200000
        cn-exp                         4.000000
        max-rad                        5.000000


          ...................................................
          :                      SETUP                      :
          :.................................................:
          :  # basis functions                  71          :
          :  # atomic orbitals                  70          :
          :  # shells                           38          :
          :  # electrons                        68          :
          :  max. iterations                   250          :
          :  Hamiltonian                  GFN2-xTB          :
          :  restarted?                      false          :
          :  GBSA solvation                  false          :
          :  PC potential                    false          :
          :  electronic temp.          300.0000000     K    :
          :  accuracy                    1.0000000          :
          :  -> integral cutoff          0.2500000E+02      :
          :  -> integral neglect         0.1000000E-07      :
          :  -> SCF convergence          0.1000000E-05 Eh   :
          :  -> wf. convergence          0.1000000E-03 e    :
          :  Broyden damping             0.4000000          :
          :  net charge                          0          :
          :  unpaired electrons                  0          :
          ...................................................

 iter      E             dE          RMSdq      gap      omega  full diag
   1    -36.9829606 -0.369830E+02  0.442E+00    2.69       0.0  T
   2    -37.0127740 -0.298133E-01  0.258E+00    2.89       1.0  T
   3    -37.0095226  0.325134E-02  0.840E-01    2.74       1.0  T
   4    -37.0135138 -0.399119E-02  0.400E-01    2.78       1.0  T
   5    -37.0155993 -0.208544E-02  0.120E-01    2.79       1.0  T
   6    -37.0156110 -0.117602E-04  0.473E-02    2.79       1.0  T
   7    -37.0156379 -0.268325E-04  0.215E-02    2.79       1.0  T
   8    -37.0156462 -0.837285E-05  0.769E-03    2.79       2.7  T
   9    -37.0156461  0.173223E-06  0.367E-03    2.79       5.7  T
  10    -37.0156463 -0.273910E-06  0.924E-04    2.79      22.6  T
  11    -37.0156463 -0.169479E-09  0.389E-04    2.79      53.5  T

   *** convergence criteria satisfied after 11 iterations ***

         #    Occupation            Energy/Eh            Energy/eV
      -------------------------------------------------------------
         1        2.0000           -0.7082282             -19.2719
       ...           ...                  ...                  ...
        28        2.0000           -0.4313137             -11.7366
        29        2.0000           -0.4301969             -11.7063
        30        2.0000           -0.4169246             -11.3451
        31        2.0000           -0.4096610             -11.1474
        32        2.0000           -0.4036532             -10.9840
        33        2.0000           -0.3781251             -10.2893
        34        2.0000           -0.3458122              -9.4100 (HOMO)
        35                         -0.2433549              -6.6220 (LUMO)
        36                         -0.2341389              -6.3712
        37                         -0.2326691              -6.3312
        38                         -0.2153655              -5.8604
        39                         -0.1950109              -5.3065
       ...                                ...                  ...
        70                          0.6202674              16.8783
      -------------------------------------------------------------
                  HL-Gap            0.1024573 Eh            2.7880 eV
             Fermi-level           -0.2945836 Eh           -8.0160 eV

 SCC (total)                   0 d,  0 h,  0 min,  0.033 sec
 SCC setup                      ...        0 min,  0.000 sec (  0.000%)
 Dispersion                     ...        0 min,  0.004 sec ( 12.122%)
 classical contributions        ...        0 min,  0.000 sec (  0.000%)
 integral evaluation            ...        0 min,  0.002 sec (  6.060%)
 iterations                     ...        0 min,  0.021 sec ( 63.637%)
 molecular gradient             ...        0 min,  0.005 sec ( 15.151%)
 printout                       ...        0 min,  0.001 sec (  3.030%)

         :::::::::::::::::::::::::::::::::::::::::::::::::::::
         ::                     SUMMARY                     ::
         :::::::::::::::::::::::::::::::::::::::::::::::::::::
         :: total energy             -36.440980157702 Eh    ::
         :: gradient norm              0.065502192280 Eh/a0 ::
         :: HOMO-LUMO gap              2.788005209875 eV    ::
         ::.................................................::
         :: HOMO orbital eigv.        -9.410029971257 eV    ::
         :: LUMO orbital eigv.        -6.622024761383 eV    ::
         ::.................................................::
         :: SCC energy               -37.015577066468 Eh    ::
         :: -> isotropic ES            0.007572967465 Eh    ::
         :: -> anisotropic ES          0.004979279667 Eh    ::
         :: -> anisotropic XC          0.022404812128 Eh    ::
         :: -> dispersion             -0.026326148851 Eh    ::
         :: repulsion energy           0.574596908765 Eh    ::
         :: add. restraining           0.000000000000 Eh    ::
         :: total charge              -0.000000000000 e     ::
         ::.................................................::
         :: atomisation energy         7.749762563837 Eh    ::
         :::::::::::::::::::::::::::::::::::::::::::::::::::::

           -------------------------------------------------
          |                Property Printout                |
           -------------------------------------------------

    * Orbital Energies and Occupations

         #    Occupation            Energy/Eh            Energy/eV
      -------------------------------------------------------------
         1        2.0000           -0.7082282             -19.2719
       ...           ...                  ...                  ...
        22        2.0000           -0.4846333             -13.1875
        23        2.0000           -0.4729557             -12.8698
        24        2.0000           -0.4713483             -12.8260
        25        2.0000           -0.4482911             -12.1986
        26        2.0000           -0.4473458             -12.1729
        27        2.0000           -0.4370297             -11.8922
        28        2.0000           -0.4313137             -11.7366
        29        2.0000           -0.4301969             -11.7063
        30        2.0000           -0.4169246             -11.3451
        31        2.0000           -0.4096610             -11.1474
        32        2.0000           -0.4036532             -10.9840
        33        2.0000           -0.3781251             -10.2893
        34        2.0000           -0.3458122              -9.4100 (HOMO)
        35                         -0.2433549              -6.6220 (LUMO)
        36                         -0.2341389              -6.3712
        37                         -0.2326691              -6.3312
        38                         -0.2153655              -5.8604
        39                         -0.1950109              -5.3065
        40                         -0.1279350              -3.4813
        41                         -0.1124992              -3.0613
        42                         -0.1100503              -2.9946
        43                         -0.0364596              -0.9921
        44                          0.0024508               0.0667
        45                          0.0271797               0.7396
       ...                                ...                  ...
        70                          0.6202674              16.8783
      -------------------------------------------------------------
                  HL-Gap            0.1024573 Eh            2.7880 eV
             Fermi-level           -0.2945836 Eh           -8.0160 eV

     #   Z          covCN         q      C6AA      α(0)
     1   6 C        2.909    -0.034    28.835     8.805
     2   6 C        2.910    -0.040    28.996     8.830
     3   6 C        2.940    -0.037    28.930     8.821
     4   6 C        2.958     0.035    27.212     8.556
     5   6 C        2.925     0.066    26.530     8.447
     6   6 C        2.912    -0.055    29.355     8.884
     7   7 N        2.683    -0.167    24.612     7.368
     8   6 C        2.925     0.066    26.530     8.447
     9   6 C        2.912    -0.055    29.355     8.884
    10   6 C        2.909    -0.034    28.835     8.805
    11   6 C        2.910    -0.040    28.996     8.830
    12   6 C        2.940    -0.037    28.930     8.821
    13   6 C        2.958     0.035    27.212     8.556
    14  16 S        2.064    -0.159   147.766    20.459
    15   1 H        0.925     0.037     2.494     2.470
    16   1 H        0.925     0.037     2.491     2.468
    17   1 H        0.925     0.046     2.367     2.406
    18   1 H        0.925     0.033     2.548     2.496
    19   1 H        0.857     0.150     1.398     1.853
    20   1 H        0.925     0.033     2.548     2.496
    21   1 H        0.925     0.037     2.494     2.470
    22   1 H        0.925     0.037     2.491     2.468
    23   1 H        0.925     0.046     2.367     2.406

 Mol. C6AA /au·bohr⁶  :       8960.482410
 Mol. C8AA /au·bohr⁸  :     249237.203853
 Mol. α(0) /au        :        154.046793


Wiberg/Mayer (AO) data.
largest (>0.10) Wiberg bond orders for each atom

 ---------------------------------------------------------------------------
     #   Z sym  total        # sym  WBO       # sym  WBO       # sym  WBO
 ---------------------------------------------------------------------------
     1   6 C    3.989 --     6 C    1.440     2 C    1.431    15 H    0.971
     2   6 C    3.984 --     1 C    1.431     3 C    1.428    16 H    0.970
     3   6 C    3.988 --     2 C    1.428     4 C    1.416    17 H    0.969
                             6 C    0.100
     4   6 C    3.961 --     3 C    1.416     5 C    1.334    14 S    1.004
     5   6 C    3.966 --     6 C    1.372     4 C    1.334     7 N    1.086
     6   6 C    3.982 --     1 C    1.440     5 C    1.372    18 H    0.967
                             3 C    0.100
     7   7 N    3.392 --     5 C    1.086     8 C    1.086    19 H    0.948
     8   6 C    3.966 --     9 C    1.372    13 C    1.334     7 N    1.086
     9   6 C    3.982 --    10 C    1.440     8 C    1.372    20 H    0.967
                            12 C    0.100
    10   6 C    3.989 --     9 C    1.440    11 C    1.431    21 H    0.971
    11   6 C    3.984 --    10 C    1.431    12 C    1.428    22 H    0.970
    12   6 C    3.988 --    11 C    1.428    13 C    1.416    23 H    0.969
                             9 C    0.100
    13   6 C    3.961 --    12 C    1.416     8 C    1.334    14 S    1.004
    14  16 S    2.266 --    13 C    1.004     4 C    1.004
    15   1 H    0.997 --     1 C    0.971
    16   1 H    0.998 --     2 C    0.970
    17   1 H    0.997 --     3 C    0.969
    18   1 H    0.999 --     6 C    0.967
    19   1 H    0.976 --     7 N    0.948
    20   1 H    0.999 --     9 C    0.967
    21   1 H    0.997 --    10 C    0.971
    22   1 H    0.998 --    11 C    0.970
    23   1 H    0.997 --    12 C    0.969
 ---------------------------------------------------------------------------

Topologies differ in total number of bonds
Writing topology from bond orders to xtbtopo.mol

molecular dipole:
                 x           y           z       tot (Debye)
 q only:        0.366       0.560       0.192
   full:        0.569       0.883       0.312       2.785
molecular quadrupole (traceless):
                xx          xy          yy          xz          yz          zz
 q only:       -2.124      -3.199       0.638       2.359       1.099       1.486
  q+dip:       -5.307      -4.812       3.186       5.964       4.084       2.121
   full:       -3.608      -4.463       1.409       3.759       2.356       2.199


           -------------------------------------------------
          | TOTAL ENERGY              -36.440980157702 Eh   |
          | GRADIENT NORM               0.065502192280 Eh/α |
          | HOMO-LUMO GAP               2.788005209875 eV   |
           -------------------------------------------------
########################################################################
[WARNING] Runtime exception occurred
-2- restart_readRestart: Dimension missmatch in restart file.
-1- restart_readRestart: Number of electron missmatch in restart file.
########################################################################

------------------------------------------------------------------------
 unit  open   action     filename
  129 false : read       dft_tmp\229.xyz
  129 false : read       dft_tmp\229.xyz
  129 false : read       dft_tmp\229.xyz
  129 false : read       C:\Users\nkapa\Downloads\xtb-6.7.1pre-windows-x86_64\xtb-6.7.1\share\xtb\param_gfn2-xtb.txt
  129 false : read       xtbrestart
  129 false : replaced   charges
  129 false : replaced   wbo
  129 false : replaced   xtbtopo.mol
  129 false : replaced   xtbrestart

------------------------------------------------------------------------
 * finished run on 2025/06/23 at 11:32:03.147     
------------------------------------------------------------------------
 total:
 * wall-time:     0 d,  0 h,  0 min,  0.077 sec
 *  cpu-time:     0 d,  0 h,  0 min,  0.500 sec
 * ratio c/w:     6.493 speedup
 SCF:
 * wall-time:     0 d,  0 h,  0 min,  0.033 sec
 *  cpu-time:     0 d,  0 h,  0 min,  0.250 sec
 * ratio c/w:     7.576 speedup

normal termination of xtb
