34

O -4.814612 0.681995 -0.410793
C -3.979746 -0.187105 -0.775035
O -4.425936 -1.414531 -1.247910
C -2.511796 0.090848 -0.687773
N -1.875951 -0.803033 0.302623
C -0.441270 -1.069723 0.058428
C 0.471415 0.152062 0.277407
N 1.754931 -0.034419 -0.440099
C 2.344632 1.269274 -0.816720
C 1.660849 1.812596 -2.032711
O 1.007650 2.887067 -1.968232
O 1.738813 1.125387 -3.237184
C 2.707100 -0.820392 0.374750
C 3.725853 -1.471530 -0.507439
O 4.948841 -1.201339 -0.369672
O 3.318428 -2.378105 -1.480887
C -2.251626 -0.588264 1.721102
C -2.092744 0.830377 2.197432
O -1.101728 1.155289 2.903912
O -3.068242 1.777774 1.902229
H -2.085105 -0.088602 -1.698654
H -2.331442 1.159627 -0.449195
H -0.316740 -1.435164 -0.984875
H -0.108854 -1.904884 0.711075
H 0.651990 0.303282 1.363102
H -0.052673 1.057464 -0.093620
H 3.420511 1.160059 -1.076196
H 2.281626 1.994733 0.026899
H 3.202307 -0.179706 1.140449
H 2.188469 -1.637685 0.919873
H 3.994003 -2.827730 -2.087180
H -3.313729 -0.882411 1.858373
H -1.664847 -1.266285 2.379174
H -2.980381 2.733073 2.227347
