25

C 3.483047 -1.798541 0.803056
C 2.016647 -1.451279 1.007688
O 1.747332 -0.211035 0.405330
P 0.058888 0.136703 0.674340
O 0.164787 1.799398 0.157901
C -1.013984 2.439266 0.576605
C -0.982694 3.890950 0.124478
O -0.468670 -0.466509 -0.875533
C -1.560059 -1.317357 -0.638169
C -2.060058 -1.869564 -1.963687
H 3.713323 -1.851483 -0.282311
H 4.126271 -1.025982 1.275586
H 3.703821 -2.783758 1.266021
H 1.817281 -1.408151 2.102610
H 1.400520 -2.255300 0.544534
H -1.096135 2.419970 1.687071
H -1.909224 1.954064 0.124898
H -0.100278 4.406160 0.559581
H -1.905326 4.409628 0.460990
H -0.925589 3.942099 -0.983385
H -2.394785 -0.760594 -0.154823
H -1.257255 -2.174459 0.005410
H -2.924318 -2.544194 -1.787715
H -1.251878 -2.442846 -2.465454
H -2.381662 -1.037188 -2.625021
