22

C -3.648917 0.205387 -0.389013
C -3.436896 -1.162817 -0.595878
C -2.141982 -1.690553 -0.544004
C -1.056027 -0.847353 -0.284464
C -1.269944 0.533072 -0.075735
C -2.567325 1.054236 -0.128985
N -0.208314 1.344271 0.175805
C 1.056028 0.847355 0.229537
C 2.141983 1.690554 0.489078
C 3.436896 1.162816 0.540959
C 3.648917 -0.205387 0.334092
C 2.567324 -1.054236 0.074063
C 1.269944 -0.533071 0.020810
N 0.208313 -1.344271 -0.230720
H -4.652753 0.607949 -0.430335
H -4.277351 -1.814580 -0.796605
H -1.986103 -2.750065 -0.705115
H -2.739477 2.111547 0.030001
H 1.986101 2.750064 0.650199
H 4.277354 1.814572 0.741691
H 4.652756 -0.607941 0.375407
H 2.739474 -2.111550 -0.084908
