18

C 2.435055 0.831364 0.011566
C 2.510289 -0.560686 -0.069801
C 1.341883 -1.326601 -0.096504
C 0.084503 -0.700941 -0.041680
C -1.168746 -1.491760 -0.068548
O -1.136260 -2.749524 -0.141511
C -2.471301 -0.803270 -0.009418
C -2.543294 0.528802 0.068464
C -1.322623 1.355398 0.097876
O -1.425881 2.609287 0.171693
C 0.008463 0.706031 0.040558
C 1.190997 1.465236 0.066677
H 3.342788 1.420572 0.031984
H 3.476168 -1.047343 -0.112284
H 1.421406 -2.404608 -0.159820
H -3.383951 -1.386057 -0.029400
H -3.513368 1.008539 0.110623
H 1.153871 2.545562 0.129524
