      -----------------------------------------------------------      
     |                   =====================                   |     
     |                           x T B                           |     
     |                   =====================                   |     
     |                         S. Grimme                         |     
     |          Mulliken Center for Theoretical Chemistry        |     
     |                    University of Bonn                     |     
      -----------------------------------------------------------      

   * xtb version 6.7.1pre (5071a88) compiled by 'Marcel@Raven' on 2024-07-23

   xtb is free software: you can redistribute it and/or modify it under
   the terms of the GNU Lesser General Public License as published by
   the Free Software Foundation, either version 3 of the License, or
   (at your option) any later version.
   
   xtb is distributed in the hope that it will be useful,
   but WITHOUT ANY WARRANTY; without even the implied warranty of
   MERCHANTABILITY or FITNESS FOR A PARTICULAR PURPOSE.  See the
   GNU Lesser General Public License for more details.
   
   Cite this work as:
   * C. Bannwarth, E. Caldeweyher, S. Ehlert, A. Hansen, P. Pracht,
     J. Seibert, S. Spicher, S. Grimme, WIREs Comput. Mol. Sci., 2020, 11,
     e01493. DOI: 10.1002/wcms.1493
   
   for GFN2-xTB:
   * C. Bannwarth, S. Ehlert and S. Grimme., J. Chem. Theory Comput., 2019,
     15, 1652-1671. DOI: 10.1021/acs.jctc.8b01176
   for GFN1-xTB:
   * S. Grimme, C. Bannwarth, P. Shushkov, J. Chem. Theory Comput., 2017,
     13, 1989-2009. DOI: 10.1021/acs.jctc.7b00118
   for GFN0-xTB:
   * P. Pracht, E. Caldeweyher, S. Ehlert, S. Grimme, ChemRxiv, 2019, preprint.
     DOI: 10.26434/chemrxiv.8326202.v1
   for GFN-FF:
   * S. Spicher and S. Grimme, Angew. Chem. Int. Ed., 2020, 59, 15665-15673.
     DOI: 10.1002/anie.202004239
   
   for ALPB and GBSA implicit solvation:
   * S. Ehlert, M. Stahn, S. Spicher, S. Grimme, J. Chem. Theory Comput.,
     2021, 17, 4250-4261. DOI: 10.1021/acs.jctc.1c00471
   
   for ddCOSMO and CPCM-X implicit solvation:
   * M. Stahn, S. Ehlert, S. Grimme, J. Phys. Chem. A,
     2023, XX, XXXX-XXXX. DOI: 10.1021/acs.jpca.3c04382
   
   for DFT-D4:
   * E. Caldeweyher, C. Bannwarth and S. Grimme, J. Chem. Phys., 2017,
     147, 034112. DOI: 10.1063/1.4993215
   * E. Caldeweyher, S. Ehlert, A. Hansen, H. Neugebauer, S. Spicher,
     C. Bannwarth and S. Grimme, J. Chem. Phys., 2019, 150, 154122.
     DOI: 10.1063/1.5090222
   * E. Caldeweyher, J.-M. Mewes, S. Ehlert and S. Grimme, Phys. Chem. Chem. Phys.
     2020, 22, 8499-8512. DOI: 10.1039/D0CP00502A
   
   for sTDA-xTB:
   * S. Grimme and C. Bannwarth, J. Chem. Phys., 2016, 145, 054103.
     DOI: 10.1063/1.4959605
   
   in the mass-spec context:
   * V. Asgeirsson, C. Bauer and S. Grimme, Chem. Sci., 2017, 8, 4879.
     DOI: 10.1039/c7sc00601b
   * J. Koopman and S. Grimme, ACS Omega 2019, 4, 12, 15120-15133.
     DOI: 10.1021/acsomega.9b02011
   
   for metadynamics refer to:
   * S. Grimme, J. Chem. Theory Comput., 2019, 155, 2847-2862
     DOI: 10.1021/acs.jctc.9b00143
   
   for SPH calculations refer to:
   * S. Spicher and S. Grimme, J. Chem. Theory Comput., 2021, 17, 1701-1714
     DOI: 10.1021/acs.jctc.0c01306
   
   for ONIOM refer to:
   * C. Plett, A. Katbashev, S. Ehlert, S. Grimme, M. Bursch,
     Phys. Chem. Chem. Phys., 2023, 25, 17860-17868. DOI: 10.1039/D3CP02178E
   
   for DIPRO refer to:
   * J. Kohn, N. Gildemeister, S. Grimme, D. Fazzi, A. Hansen,
     J. Chem. Phys., 2023, just accepted.
   
   for PTB refer to:
   * S. Grimme, M. Mueller, A. Hansen, J. Chem. Phys., 2023, 158, 124111.
     DOI: 10.1063/5.0137838
   
   with help from (in alphabetical order)
   P. Atkinson, C. Bannwarth, F. Bohle, G. Brandenburg, E. Caldeweyher
   M. Checinski, S. Dohm, S. Ehlert, S. Ehrlich, I. Gerasimov, C. Hölzer
   A. Katbashev, J. Kohn, J. Koopman, C. Lavigne, S. Lehtola, F. März, M. Müller,
   F. Musil, H. Neugebauer, J. Pisarek, C. Plett, P. Pracht, F. Pultar,
   J. Seibert, P. Shushkov, S. Spicher, M. Stahn, M. Steiner, T. Strunk,
   J. Stückrath, T. Rose, and J. Unsleber
   
 * started run on 2025/06/23 at 11:32:05.634     
$$$$$$$$$$$$$$$$$$$$$$$$$$$$$$$$$$$$$$$$$$$$$$$$$$$$$$$$$$$$$$$$$$$$$$$$
 CONSTRAINTS & SCANS: DEBUG SECTION
$$$$$$$$$$$$$$$$$$$$$$$$$$$$$$$$$$$$$$$$$$$$$$$$$$$$$$$$$$$$$$$$$$$$$$$$
   ID    Z sym.   atoms
    1    6 C      1-5, 7-9, 11, 12
    2    8 O      6, 10
    3    1 H      13-18
$$$$$$$$$$$$$$$$$$$$$$$$$$$$$$$$$$$$$$$$$$$$$$$$$$$$$$$$$$$$$$$$$$$$$$$$

           -------------------------------------------------
          |                Calculation Setup                |
           -------------------------------------------------

          program call               : C:\Users\nkapa\Downloads\xtb-6.7.1pre-windows-x86_64\xtb-6.7.1\bin\xtb.EXE dft_tmp\251.xyz --gfn2 --parallel 8 --verbose
          coordinate file            : dft_tmp\251.xyz
          xtbhome directory          : C:\Users\nkapa\AppData\Roaming\SPB_Data
          path for xtb               : C:\Users\nkapa\Downloads\xtb-6.7.1pre-windows-x86_64\xtb-6.7.1\share\xtb
          xcontrol input file        : dft_tmp\251.xyz
          omp threads                :                     8


           -------------------------------------------------
          |                 G F N 2 - x T B                 |
           -------------------------------------------------

        Reference                      10.1021/acs.jctc.8b01176
      * Hamiltonian:
        H0-scaling (s, p, d)           1.850000    2.230000    2.230000
        zeta-weighting                 0.500000
      * Dispersion:
        s8                             2.700000
        a1                             0.520000
        a2                             5.000000
        s9                             5.000000
      * Repulsion:
        kExp                           1.500000    1.000000
        rExp                           1.000000
      * Coulomb:
        alpha                          2.000000
        third order                    shell-resolved
        anisotropic                    true
        a3                             3.000000
        a5                             4.000000
        cn-shift                       1.200000
        cn-exp                         4.000000
        max-rad                        5.000000


          ...................................................
          :                      SETUP                      :
          :.................................................:
          :  # basis functions                  54          :
          :  # atomic orbitals                  54          :
          :  # shells                           30          :
          :  # electrons                        58          :
          :  max. iterations                   250          :
          :  Hamiltonian                  GFN2-xTB          :
          :  restarted?                      false          :
          :  GBSA solvation                  false          :
          :  PC potential                    false          :
          :  electronic temp.          300.0000000     K    :
          :  accuracy                    1.0000000          :
          :  -> integral cutoff          0.2500000E+02      :
          :  -> integral neglect         0.1000000E-07      :
          :  -> SCF convergence          0.1000000E-05 Eh   :
          :  -> wf. convergence          0.1000000E-03 e    :
          :  Broyden damping             0.4000000          :
          :  net charge                          0          :
          :  unpaired electrons                  0          :
          ...................................................

 iter      E             dE          RMSdq      gap      omega  full diag
   1    -32.9521772 -0.329522E+02  0.616E+00    1.89       0.0  T
   2    -32.9963976 -0.442205E-01  0.328E+00    1.44       1.0  T
   3    -32.9894697  0.692794E-02  0.201E+00    1.74       1.0  T
   4    -33.0096831 -0.202134E-01  0.202E-01    1.57       1.0  T
   5    -33.0101325 -0.449386E-03  0.104E-01    1.58       1.0  T
   6    -33.0102645 -0.131968E-03  0.452E-02    1.58       1.0  T
   7    -33.0102778 -0.133612E-04  0.183E-02    1.58       1.3  T
   8    -33.0102777  0.879683E-07  0.735E-03    1.58       3.2  T
   9    -33.0102785 -0.735576E-06  0.169E-03    1.58      14.0  T
  10    -33.0102785 -0.148568E-07  0.987E-04    1.58      23.9  T
  11    -33.0102785 -0.470998E-08  0.947E-05    1.58     248.9  T

   *** convergence criteria satisfied after 11 iterations ***

         #    Occupation            Energy/Eh            Energy/eV
      -------------------------------------------------------------
         1        2.0000           -0.7136560             -19.4196
       ...           ...                  ...                  ...
        23        2.0000           -0.4714193             -12.8280
        24        2.0000           -0.4568309             -12.4310
        25        2.0000           -0.4523642             -12.3095
        26        2.0000           -0.4385484             -11.9335
        27        2.0000           -0.4362569             -11.8712
        28        2.0000           -0.4206221             -11.4457
        29        2.0000           -0.4087543             -11.1228 (HOMO)
        30                         -0.3506981              -9.5430 (LUMO)
        31                         -0.2829729              -7.7001
        32                         -0.2609038              -7.0996
        33                         -0.2189584              -5.9582
        34                         -0.1826069              -4.9690
       ...                                ...                  ...
        54                          0.6576707              17.8961
      -------------------------------------------------------------
                  HL-Gap            0.0580562 Eh            1.5798 eV
             Fermi-level           -0.3797262 Eh          -10.3329 eV

 SCC (total)                   0 d,  0 h,  0 min,  0.018 sec
 SCC setup                      ...        0 min,  0.001 sec (  5.555%)
 Dispersion                     ...        0 min,  0.000 sec (  0.000%)
 classical contributions        ...        0 min,  0.000 sec (  0.000%)
 integral evaluation            ...        0 min,  0.001 sec (  5.556%)
 iterations                     ...        0 min,  0.013 sec ( 72.222%)
 molecular gradient             ...        0 min,  0.002 sec ( 11.110%)
 printout                       ...        0 min,  0.001 sec (  5.556%)

         :::::::::::::::::::::::::::::::::::::::::::::::::::::
         ::                     SUMMARY                     ::
         :::::::::::::::::::::::::::::::::::::::::::::::::::::
         :: total energy             -32.545570901564 Eh    ::
         :: gradient norm              0.110722871180 Eh/a0 ::
         :: HOMO-LUMO gap              1.579789541583 eV    ::
         ::.................................................::
         :: HOMO orbital eigv.       -11.122770252296 eV    ::
         :: LUMO orbital eigv.        -9.542980710713 eV    ::
         ::.................................................::
         :: SCC energy               -33.010223867533 Eh    ::
         :: -> isotropic ES            0.051920444955 Eh    ::
         :: -> anisotropic ES         -0.001663259281 Eh    ::
         :: -> anisotropic XC          0.014107603993 Eh    ::
         :: -> dispersion             -0.017601000721 Eh    ::
         :: repulsion energy           0.464652965969 Eh    ::
         :: add. restraining           0.000000000000 Eh    ::
         :: total charge              -0.000000000000 e     ::
         ::.................................................::
         :: atomisation energy         6.424294064904 Eh    ::
         :::::::::::::::::::::::::::::::::::::::::::::::::::::

           -------------------------------------------------
          |                Property Printout                |
           -------------------------------------------------

    * Orbital Energies and Occupations

         #    Occupation            Energy/Eh            Energy/eV
      -------------------------------------------------------------
         1        2.0000           -0.7136560             -19.4196
       ...           ...                  ...                  ...
        17        2.0000           -0.5297555             -14.4154
        18        2.0000           -0.5167065             -14.0603
        19        2.0000           -0.5083916             -13.8340
        20        2.0000           -0.5027796             -13.6813
        21        2.0000           -0.5012200             -13.6389
        22        2.0000           -0.4936960             -13.4342
        23        2.0000           -0.4714193             -12.8280
        24        2.0000           -0.4568309             -12.4310
        25        2.0000           -0.4523642             -12.3095
        26        2.0000           -0.4385484             -11.9335
        27        2.0000           -0.4362569             -11.8712
        28        2.0000           -0.4206221             -11.4457
        29        2.0000           -0.4087543             -11.1228 (HOMO)
        30                         -0.3506981              -9.5430 (LUMO)
        31                         -0.2829729              -7.7001
        32                         -0.2609038              -7.0996
        33                         -0.2189584              -5.9582
        34                         -0.1826069              -4.9690
        35                         -0.1003595              -2.7309
        36                          0.0407534               1.1090
        37                          0.0449843               1.2241
        38                          0.1121171               3.0509
        39                          0.1151001               3.1320
        40                          0.1178535               3.2070
       ...                                ...                  ...
        54                          0.6576707              17.8961
      -------------------------------------------------------------
                  HL-Gap            0.0580562 Eh            1.5798 eV
             Fermi-level           -0.3797262 Eh          -10.3329 eV

     #   Z          covCN         q      C6AA      α(0)
     1   6 C        2.909    -0.019    28.492     8.753
     2   6 C        2.909    -0.019    28.492     8.753
     3   6 C        2.911    -0.011    28.299     8.723
     4   6 C        2.966    -0.003    28.092     8.694
     5   6 C        2.827     0.222    23.334     7.915
     6   8 O        0.857    -0.362    20.933     6.134
     7   6 C        2.895    -0.033    28.820     8.802
     8   6 C        2.895    -0.033    28.820     8.802
     9   6 C        2.827     0.222    23.334     7.915
    10   8 O        0.857    -0.362    20.933     6.134
    11   6 C        2.966    -0.003    28.092     8.694
    12   6 C        2.911    -0.011    28.299     8.723
    13   1 H        0.925     0.054     2.275     2.359
    14   1 H        0.925     0.054     2.275     2.359
    15   1 H        0.925     0.073     2.058     2.243
    16   1 H        0.925     0.080     1.975     2.198
    17   1 H        0.925     0.080     1.975     2.198
    18   1 H        0.925     0.073     2.058     2.243

 Mol. C6AA /au·bohr⁶  :       4903.692375
 Mol. C8AA /au·bohr⁸  :     123960.776888
 Mol. α(0) /au        :        111.641289


Wiberg/Mayer (AO) data.
largest (>0.10) Wiberg bond orders for each atom

 ---------------------------------------------------------------------------
     #   Z sym  total        # sym  WBO       # sym  WBO       # sym  WBO
 ---------------------------------------------------------------------------
     1   6 C    3.989 --    12 C    1.435     2 C    1.432    13 H    0.969
     2   6 C    3.989 --     3 C    1.435     1 C    1.432    14 H    0.969
     3   6 C    3.985 --     2 C    1.435     4 C    1.392    15 H    0.965
     4   6 C    3.988 --     3 C    1.392    11 C    1.326     5 C    1.046
     5   6 C    3.937 --     6 O    1.745     7 C    1.058     4 C    1.046
     6   8 O    2.002 --     5 C    1.745
     7   6 C    3.982 --     8 C    1.801     5 C    1.058    16 H    0.961
     8   6 C    3.982 --     7 C    1.801     9 C    1.058    17 H    0.961
     9   6 C    3.937 --    10 O    1.745     8 C    1.058    11 C    1.046
    10   8 O    2.002 --     9 C    1.745
    11   6 C    3.988 --    12 C    1.392     4 C    1.326     9 C    1.046
    12   6 C    3.985 --     1 C    1.435    11 C    1.392    18 H    0.965
    13   1 H    0.996 --     1 C    0.969
    14   1 H    0.996 --     2 C    0.969
    15   1 H    0.994 --     3 C    0.965
    16   1 H    0.993 --     7 C    0.961
    17   1 H    0.993 --     8 C    0.961
    18   1 H    0.994 --    12 C    0.965
 ---------------------------------------------------------------------------

Topologies differ in total number of bonds
Writing topology from bond orders to xtbtopo.mol

molecular dipole:
                 x           y           z       tot (Debye)
 q only:        0.781       0.043      -0.009
   full:        0.734       0.040      -0.009       1.869
molecular quadrupole (traceless):
                xx          xy          yy          xz          yz          zz
 q only:       13.422       1.548     -14.991      -0.087      -0.981       1.569
  q+dip:       18.500       1.912     -16.512      -0.195      -0.868      -1.989
   full:       15.497       1.883     -19.094      -0.068      -1.340       3.597


           -------------------------------------------------
          | TOTAL ENERGY              -32.545570901564 Eh   |
          | GRADIENT NORM               0.110722871180 Eh/α |
          | HOMO-LUMO GAP               1.579789541583 eV   |
           -------------------------------------------------
########################################################################
[WARNING] Runtime exception occurred
-2- restart_readRestart: Dimension missmatch in restart file.
-1- restart_readRestart: Number of electron missmatch in restart file.
########################################################################

------------------------------------------------------------------------
 unit  open   action     filename
  129 false : read       dft_tmp\251.xyz
  129 false : read       dft_tmp\251.xyz
  129 false : read       dft_tmp\251.xyz
  129 false : read       C:\Users\nkapa\Downloads\xtb-6.7.1pre-windows-x86_64\xtb-6.7.1\share\xtb\param_gfn2-xtb.txt
  129 false : read       xtbrestart
  129 false : replaced   charges
  129 false : replaced   wbo
  129 false : replaced   xtbtopo.mol
  129 false : replaced   xtbrestart

------------------------------------------------------------------------
 * finished run on 2025/06/23 at 11:32:05.692     
------------------------------------------------------------------------
 total:
 * wall-time:     0 d,  0 h,  0 min,  0.056 sec
 *  cpu-time:     0 d,  0 h,  0 min,  0.375 sec
 * ratio c/w:     6.696 speedup
 SCF:
 * wall-time:     0 d,  0 h,  0 min,  0.018 sec
 *  cpu-time:     0 d,  0 h,  0 min,  0.125 sec
 * ratio c/w:     6.944 speedup

normal termination of xtb
