      -----------------------------------------------------------      
     |                   =====================                   |     
     |                           x T B                           |     
     |                   =====================                   |     
     |                         S. Grimme                         |     
     |          Mulliken Center for Theoretical Chemistry        |     
     |                    University of Bonn                     |     
      -----------------------------------------------------------      

   * xtb version 6.7.1pre (5071a88) compiled by 'Marcel@Raven' on 2024-07-23

   xtb is free software: you can redistribute it and/or modify it under
   the terms of the GNU Lesser General Public License as published by
   the Free Software Foundation, either version 3 of the License, or
   (at your option) any later version.
   
   xtb is distributed in the hope that it will be useful,
   but WITHOUT ANY WARRANTY; without even the implied warranty of
   MERCHANTABILITY or FITNESS FOR A PARTICULAR PURPOSE.  See the
   GNU Lesser General Public License for more details.
   
   Cite this work as:
   * C. Bannwarth, E. Caldeweyher, S. Ehlert, A. Hansen, P. Pracht,
     J. Seibert, S. Spicher, S. Grimme, WIREs Comput. Mol. Sci., 2020, 11,
     e01493. DOI: 10.1002/wcms.1493
   
   for GFN2-xTB:
   * C. Bannwarth, S. Ehlert and S. Grimme., J. Chem. Theory Comput., 2019,
     15, 1652-1671. DOI: 10.1021/acs.jctc.8b01176
   for GFN1-xTB:
   * S. Grimme, C. Bannwarth, P. Shushkov, J. Chem. Theory Comput., 2017,
     13, 1989-2009. DOI: 10.1021/acs.jctc.7b00118
   for GFN0-xTB:
   * P. Pracht, E. Caldeweyher, S. Ehlert, S. Grimme, ChemRxiv, 2019, preprint.
     DOI: 10.26434/chemrxiv.8326202.v1
   for GFN-FF:
   * S. Spicher and S. Grimme, Angew. Chem. Int. Ed., 2020, 59, 15665-15673.
     DOI: 10.1002/anie.202004239
   
   for ALPB and GBSA implicit solvation:
   * S. Ehlert, M. Stahn, S. Spicher, S. Grimme, J. Chem. Theory Comput.,
     2021, 17, 4250-4261. DOI: 10.1021/acs.jctc.1c00471
   
   for ddCOSMO and CPCM-X implicit solvation:
   * M. Stahn, S. Ehlert, S. Grimme, J. Phys. Chem. A,
     2023, XX, XXXX-XXXX. DOI: 10.1021/acs.jpca.3c04382
   
   for DFT-D4:
   * E. Caldeweyher, C. Bannwarth and S. Grimme, J. Chem. Phys., 2017,
     147, 034112. DOI: 10.1063/1.4993215
   * E. Caldeweyher, S. Ehlert, A. Hansen, H. Neugebauer, S. Spicher,
     C. Bannwarth and S. Grimme, J. Chem. Phys., 2019, 150, 154122.
     DOI: 10.1063/1.5090222
   * E. Caldeweyher, J.-M. Mewes, S. Ehlert and S. Grimme, Phys. Chem. Chem. Phys.
     2020, 22, 8499-8512. DOI: 10.1039/D0CP00502A
   
   for sTDA-xTB:
   * S. Grimme and C. Bannwarth, J. Chem. Phys., 2016, 145, 054103.
     DOI: 10.1063/1.4959605
   
   in the mass-spec context:
   * V. Asgeirsson, C. Bauer and S. Grimme, Chem. Sci., 2017, 8, 4879.
     DOI: 10.1039/c7sc00601b
   * J. Koopman and S. Grimme, ACS Omega 2019, 4, 12, 15120-15133.
     DOI: 10.1021/acsomega.9b02011
   
   for metadynamics refer to:
   * S. Grimme, J. Chem. Theory Comput., 2019, 155, 2847-2862
     DOI: 10.1021/acs.jctc.9b00143
   
   for SPH calculations refer to:
   * S. Spicher and S. Grimme, J. Chem. Theory Comput., 2021, 17, 1701-1714
     DOI: 10.1021/acs.jctc.0c01306
   
   for ONIOM refer to:
   * C. Plett, A. Katbashev, S. Ehlert, S. Grimme, M. Bursch,
     Phys. Chem. Chem. Phys., 2023, 25, 17860-17868. DOI: 10.1039/D3CP02178E
   
   for DIPRO refer to:
   * J. Kohn, N. Gildemeister, S. Grimme, D. Fazzi, A. Hansen,
     J. Chem. Phys., 2023, just accepted.
   
   for PTB refer to:
   * S. Grimme, M. Mueller, A. Hansen, J. Chem. Phys., 2023, 158, 124111.
     DOI: 10.1063/5.0137838
   
   with help from (in alphabetical order)
   P. Atkinson, C. Bannwarth, F. Bohle, G. Brandenburg, E. Caldeweyher
   M. Checinski, S. Dohm, S. Ehlert, S. Ehrlich, I. Gerasimov, C. Hölzer
   A. Katbashev, J. Kohn, J. Koopman, C. Lavigne, S. Lehtola, F. März, M. Müller,
   F. Musil, H. Neugebauer, J. Pisarek, C. Plett, P. Pracht, F. Pultar,
   J. Seibert, P. Shushkov, S. Spicher, M. Stahn, M. Steiner, T. Strunk,
   J. Stückrath, T. Rose, and J. Unsleber
   
 * started run on 2025/06/23 at 11:32:05.744     
$$$$$$$$$$$$$$$$$$$$$$$$$$$$$$$$$$$$$$$$$$$$$$$$$$$$$$$$$$$$$$$$$$$$$$$$
 CONSTRAINTS & SCANS: DEBUG SECTION
$$$$$$$$$$$$$$$$$$$$$$$$$$$$$$$$$$$$$$$$$$$$$$$$$$$$$$$$$$$$$$$$$$$$$$$$
   ID    Z sym.   atoms
    1    6 C      1-4, 7, 8
    2    8 O      5, 6, 9
    3    1 H      10-19
$$$$$$$$$$$$$$$$$$$$$$$$$$$$$$$$$$$$$$$$$$$$$$$$$$$$$$$$$$$$$$$$$$$$$$$$

           -------------------------------------------------
          |                Calculation Setup                |
           -------------------------------------------------

          program call               : C:\Users\nkapa\Downloads\xtb-6.7.1pre-windows-x86_64\xtb-6.7.1\bin\xtb.EXE dft_tmp\252.xyz --gfn2 --parallel 8 --verbose
          coordinate file            : dft_tmp\252.xyz
          xtbhome directory          : C:\Users\nkapa\AppData\Roaming\SPB_Data
          path for xtb               : C:\Users\nkapa\Downloads\xtb-6.7.1pre-windows-x86_64\xtb-6.7.1\share\xtb
          xcontrol input file        : dft_tmp\252.xyz
          omp threads                :                     8


           -------------------------------------------------
          |                 G F N 2 - x T B                 |
           -------------------------------------------------

        Reference                      10.1021/acs.jctc.8b01176
      * Hamiltonian:
        H0-scaling (s, p, d)           1.850000    2.230000    2.230000
        zeta-weighting                 0.500000
      * Dispersion:
        s8                             2.700000
        a1                             0.520000
        a2                             5.000000
        s9                             5.000000
      * Repulsion:
        kExp                           1.500000    1.000000
        rExp                           1.000000
      * Coulomb:
        alpha                          2.000000
        third order                    shell-resolved
        anisotropic                    true
        a3                             3.000000
        a5                             4.000000
        cn-shift                       1.200000
        cn-exp                         4.000000
        max-rad                        5.000000


          ...................................................
          :                      SETUP                      :
          :.................................................:
          :  # basis functions                  46          :
          :  # atomic orbitals                  46          :
          :  # shells                           28          :
          :  # electrons                        52          :
          :  max. iterations                   250          :
          :  Hamiltonian                  GFN2-xTB          :
          :  restarted?                      false          :
          :  GBSA solvation                  false          :
          :  PC potential                    false          :
          :  electronic temp.          300.0000000     K    :
          :  accuracy                    1.0000000          :
          :  -> integral cutoff          0.2500000E+02      :
          :  -> integral neglect         0.1000000E-07      :
          :  -> SCF convergence          0.1000000E-05 Eh   :
          :  -> wf. convergence          0.1000000E-03 e    :
          :  Broyden damping             0.4000000          :
          :  net charge                          0          :
          :  unpaired electrons                  0          :
          ...................................................

 iter      E             dE          RMSdq      gap      omega  full diag
   1    -30.3234163 -0.303234E+02  0.486E+00    3.94       0.0  T
   2    -30.3807689 -0.573527E-01  0.253E+00    3.22       1.0  T
   3    -30.3792790  0.148995E-02  0.136E+00    3.68       1.0  T
   4    -30.3863988 -0.711978E-02  0.398E-01    3.50       1.0  T
   5    -30.3881090 -0.171019E-02  0.163E-01    3.48       1.0  T
   6    -30.3884310 -0.322040E-03  0.714E-02    3.52       1.0  T
   7    -30.3884448 -0.137560E-04  0.179E-02    3.51       1.3  T
   8    -30.3884453 -0.528400E-06  0.568E-03    3.51       4.0  T
   9    -30.3884454 -0.795336E-07  0.208E-03    3.51      11.0  T
  10    -30.3884454 -0.816826E-08  0.916E-04    3.51      25.1  T
  11    -30.3884454 -0.223098E-08  0.267E-04    3.51      85.8  T

   *** convergence criteria satisfied after 11 iterations ***

         #    Occupation            Energy/Eh            Energy/eV
      -------------------------------------------------------------
         1        2.0000           -0.7237782             -19.6950
       ...           ...                  ...                  ...
        20        2.0000           -0.4689136             -12.7598
        21        2.0000           -0.4618846             -12.5685
        22        2.0000           -0.4477416             -12.1837
        23        2.0000           -0.4356419             -11.8544
        24        2.0000           -0.4239654             -11.5367
        25        2.0000           -0.4166556             -11.3378
        26        2.0000           -0.4095462             -11.1443 (HOMO)
        27                         -0.2804904              -7.6325 (LUMO)
        28                         -0.1725508              -4.6953
        29                         -0.0412056              -1.1213
        30                          0.0296726               0.8074
        31                          0.0828837               2.2554
       ...                                ...                  ...
        46                          0.5989646              16.2987
      -------------------------------------------------------------
                  HL-Gap            0.1290558 Eh            3.5118 eV
             Fermi-level           -0.3450183 Eh           -9.3884 eV

 SCC (total)                   0 d,  0 h,  0 min,  0.015 sec
 SCC setup                      ...        0 min,  0.000 sec (  0.000%)
 Dispersion                     ...        0 min,  0.001 sec (  6.666%)
 classical contributions        ...        0 min,  0.000 sec (  0.000%)
 integral evaluation            ...        0 min,  0.000 sec (  0.000%)
 iterations                     ...        0 min,  0.012 sec ( 80.000%)
 molecular gradient             ...        0 min,  0.002 sec ( 13.334%)
 printout                       ...        0 min,  0.000 sec (  0.000%)

         :::::::::::::::::::::::::::::::::::::::::::::::::::::
         ::                     SUMMARY                     ::
         :::::::::::::::::::::::::::::::::::::::::::::::::::::
         :: total energy             -30.099023471857 Eh    ::
         :: gradient norm              0.119596063404 Eh/a0 ::
         :: HOMO-LUMO gap              3.511787733124 eV    ::
         ::.................................................::
         :: HOMO orbital eigv.       -11.144319039328 eV    ::
         :: LUMO orbital eigv.        -7.632531306204 eV    ::
         ::.................................................::
         :: SCC energy               -30.388419346507 Eh    ::
         :: -> isotropic ES            0.071819136838 Eh    ::
         :: -> anisotropic ES          0.002577778383 Eh    ::
         :: -> anisotropic XC          0.005490324453 Eh    ::
         :: -> dispersion             -0.011519685919 Eh    ::
         :: repulsion energy           0.289395874650 Eh    ::
         :: add. restraining           0.000000000000 Eh    ::
         :: total charge               0.000000000000 e     ::
         ::.................................................::
         :: atomisation energy         5.129540634011 Eh    ::
         :::::::::::::::::::::::::::::::::::::::::::::::::::::

           -------------------------------------------------
          |                Property Printout                |
           -------------------------------------------------

    * Orbital Energies and Occupations

         #    Occupation            Energy/Eh            Energy/eV
      -------------------------------------------------------------
         1        2.0000           -0.7237782             -19.6950
       ...           ...                  ...                  ...
        14        2.0000           -0.5340835             -14.5332
        15        2.0000           -0.5177485             -14.0887
        16        2.0000           -0.5049317             -13.7399
        17        2.0000           -0.4922597             -13.3951
        18        2.0000           -0.4901050             -13.3364
        19        2.0000           -0.4847341             -13.1903
        20        2.0000           -0.4689136             -12.7598
        21        2.0000           -0.4618846             -12.5685
        22        2.0000           -0.4477416             -12.1837
        23        2.0000           -0.4356419             -11.8544
        24        2.0000           -0.4239654             -11.5367
        25        2.0000           -0.4166556             -11.3378
        26        2.0000           -0.4095462             -11.1443 (HOMO)
        27                         -0.2804904              -7.6325 (LUMO)
        28                         -0.1725508              -4.6953
        29                         -0.0412056              -1.1213
        30                          0.0296726               0.8074
        31                          0.0828837               2.2554
        32                          0.0952065               2.5907
        33                          0.1027074               2.7948
        34                          0.1133629               3.0848
        35                          0.1218326               3.3152
        36                          0.1412657               3.8440
        37                          0.1524307               4.1479
       ...                                ...                  ...
        46                          0.5989646              16.2987
      -------------------------------------------------------------
                  HL-Gap            0.1290558 Eh            3.5118 eV
             Fermi-level           -0.3450183 Eh           -9.3884 eV

     #   Z          covCN         q      C6AA      α(0)
     1   6 C        3.750    -0.109    22.647     6.787
     2   6 C        2.936     0.007    27.864     8.657
     3   6 C        2.846    -0.072    29.796     8.946
     4   6 C        2.699     0.333    21.338     7.560
     5   8 O        0.856    -0.424    22.168     6.313
     6   8 O        1.700    -0.258    18.279     5.772
     7   6 C        3.673     0.086    19.381     6.309
     8   6 C        3.669     0.085    19.410     6.316
     9   8 O        1.652    -0.422    21.291     6.229
    10   1 H        0.922     0.057     2.230     2.335
    11   1 H        0.921     0.050     2.322     2.383
    12   1 H        0.922     0.063     2.168     2.303
    13   1 H        0.925     0.075     2.032     2.229
    14   1 H        0.925     0.063     2.162     2.299
    15   1 H        0.921     0.049     2.333     2.389
    16   1 H        0.921     0.066     2.131     2.283
    17   1 H        0.921     0.027     2.630     2.536
    18   1 H        0.921     0.033     2.542     2.493
    19   1 H        0.801     0.292     0.746     1.357

 Mol. C6AA /au·bohr⁶  :       3226.403684
 Mol. C8AA /au·bohr⁸  :      70819.584442
 Mol. α(0) /au        :         85.498635


Wiberg/Mayer (AO) data.
largest (>0.10) Wiberg bond orders for each atom

 ---------------------------------------------------------------------------
     #   Z sym  total        # sym  WBO       # sym  WBO       # sym  WBO
 ---------------------------------------------------------------------------
     1   6 C    3.994 --     2 C    1.026    11 H    0.983    12 H    0.976
                            10 H    0.965
     2   6 C    3.984 --     3 C    1.858     4 C    1.031     1 C    1.026
     3   6 C    3.984 --     2 C    1.858    14 H    0.974    13 H    0.971
     4   6 C    3.915 --     5 O    1.702     6 O    1.097     2 C    1.031
     5   8 O    2.005 --     4 C    1.702     6 O    0.167
     6   8 O    2.298 --     4 C    1.097     7 C    0.962     5 O    0.167
     7   6 C    3.939 --     8 C    1.001    15 H    0.965    16 H    0.963
                             6 O    0.962
     8   6 C    3.964 --     9 O    1.007     7 C    1.001    18 H    0.968
                            17 H    0.967
     9   8 O    1.962 --     8 C    1.007    19 H    0.900
    10   1 H    0.997 --     1 C    0.965
    11   1 H    0.997 --     1 C    0.983
    12   1 H    0.996 --     1 C    0.976
    13   1 H    0.994 --     3 C    0.971
    14   1 H    0.995 --     3 C    0.974
    15   1 H    0.998 --     7 C    0.965
    16   1 H    0.996 --     7 C    0.963
    17   1 H    0.999 --     8 C    0.967
    18   1 H    0.999 --     8 C    0.968
    19   1 H    0.915 --     9 O    0.900
 ---------------------------------------------------------------------------

Topologies differ in total number of bonds
Writing topology from bond orders to xtbtopo.mol

molecular dipole:
                 x           y           z       tot (Debye)
 q only:        0.272       0.813      -0.845
   full:        0.504       0.832      -1.060       3.656
molecular quadrupole (traceless):
                xx          xy          yy          xz          yz          zz
 q only:       13.324      -1.232      -7.797      -3.384       1.128      -5.527
  q+dip:       15.995      -1.420     -10.200      -4.291       0.694      -5.795
   full:       15.057      -1.253      -9.922      -4.307       1.655      -5.134


           -------------------------------------------------
          | TOTAL ENERGY              -30.099023471857 Eh   |
          | GRADIENT NORM               0.119596063404 Eh/α |
          | HOMO-LUMO GAP               3.511787733124 eV   |
           -------------------------------------------------
########################################################################
[WARNING] Runtime exception occurred
-2- restart_readRestart: Dimension missmatch in restart file.
-1- restart_readRestart: Number of electron missmatch in restart file.
########################################################################

------------------------------------------------------------------------
 unit  open   action     filename
  129 false : read       dft_tmp\252.xyz
  129 false : read       dft_tmp\252.xyz
  129 false : read       dft_tmp\252.xyz
  129 false : read       C:\Users\nkapa\Downloads\xtb-6.7.1pre-windows-x86_64\xtb-6.7.1\share\xtb\param_gfn2-xtb.txt
  129 false : read       xtbrestart
  129 false : replaced   charges
  129 false : replaced   wbo
  129 false : replaced   xtbtopo.mol
  129 false : replaced   xtbrestart

------------------------------------------------------------------------
 * finished run on 2025/06/23 at 11:32:05.797     
------------------------------------------------------------------------
 total:
 * wall-time:     0 d,  0 h,  0 min,  0.051 sec
 *  cpu-time:     0 d,  0 h,  0 min,  0.266 sec
 * ratio c/w:     5.208 speedup
 SCF:
 * wall-time:     0 d,  0 h,  0 min,  0.016 sec
 *  cpu-time:     0 d,  0 h,  0 min,  0.125 sec
 * ratio c/w:     7.812 speedup

normal termination of xtb
