      -----------------------------------------------------------      
     |                   =====================                   |     
     |                           x T B                           |     
     |                   =====================                   |     
     |                         S. Grimme                         |     
     |          Mulliken Center for Theoretical Chemistry        |     
     |                    University of Bonn                     |     
      -----------------------------------------------------------      

   * xtb version 6.7.1pre (5071a88) compiled by 'Marcel@Raven' on 2024-07-23

   xtb is free software: you can redistribute it and/or modify it under
   the terms of the GNU Lesser General Public License as published by
   the Free Software Foundation, either version 3 of the License, or
   (at your option) any later version.
   
   xtb is distributed in the hope that it will be useful,
   but WITHOUT ANY WARRANTY; without even the implied warranty of
   MERCHANTABILITY or FITNESS FOR A PARTICULAR PURPOSE.  See the
   GNU Lesser General Public License for more details.
   
   Cite this work as:
   * C. Bannwarth, E. Caldeweyher, S. Ehlert, A. Hansen, P. Pracht,
     J. Seibert, S. Spicher, S. Grimme, WIREs Comput. Mol. Sci., 2020, 11,
     e01493. DOI: 10.1002/wcms.1493
   
   for GFN2-xTB:
   * C. Bannwarth, S. Ehlert and S. Grimme., J. Chem. Theory Comput., 2019,
     15, 1652-1671. DOI: 10.1021/acs.jctc.8b01176
   for GFN1-xTB:
   * S. Grimme, C. Bannwarth, P. Shushkov, J. Chem. Theory Comput., 2017,
     13, 1989-2009. DOI: 10.1021/acs.jctc.7b00118
   for GFN0-xTB:
   * P. Pracht, E. Caldeweyher, S. Ehlert, S. Grimme, ChemRxiv, 2019, preprint.
     DOI: 10.26434/chemrxiv.8326202.v1
   for GFN-FF:
   * S. Spicher and S. Grimme, Angew. Chem. Int. Ed., 2020, 59, 15665-15673.
     DOI: 10.1002/anie.202004239
   
   for ALPB and GBSA implicit solvation:
   * S. Ehlert, M. Stahn, S. Spicher, S. Grimme, J. Chem. Theory Comput.,
     2021, 17, 4250-4261. DOI: 10.1021/acs.jctc.1c00471
   
   for ddCOSMO and CPCM-X implicit solvation:
   * M. Stahn, S. Ehlert, S. Grimme, J. Phys. Chem. A,
     2023, XX, XXXX-XXXX. DOI: 10.1021/acs.jpca.3c04382
   
   for DFT-D4:
   * E. Caldeweyher, C. Bannwarth and S. Grimme, J. Chem. Phys., 2017,
     147, 034112. DOI: 10.1063/1.4993215
   * E. Caldeweyher, S. Ehlert, A. Hansen, H. Neugebauer, S. Spicher,
     C. Bannwarth and S. Grimme, J. Chem. Phys., 2019, 150, 154122.
     DOI: 10.1063/1.5090222
   * E. Caldeweyher, J.-M. Mewes, S. Ehlert and S. Grimme, Phys. Chem. Chem. Phys.
     2020, 22, 8499-8512. DOI: 10.1039/D0CP00502A
   
   for sTDA-xTB:
   * S. Grimme and C. Bannwarth, J. Chem. Phys., 2016, 145, 054103.
     DOI: 10.1063/1.4959605
   
   in the mass-spec context:
   * V. Asgeirsson, C. Bauer and S. Grimme, Chem. Sci., 2017, 8, 4879.
     DOI: 10.1039/c7sc00601b
   * J. Koopman and S. Grimme, ACS Omega 2019, 4, 12, 15120-15133.
     DOI: 10.1021/acsomega.9b02011
   
   for metadynamics refer to:
   * S. Grimme, J. Chem. Theory Comput., 2019, 155, 2847-2862
     DOI: 10.1021/acs.jctc.9b00143
   
   for SPH calculations refer to:
   * S. Spicher and S. Grimme, J. Chem. Theory Comput., 2021, 17, 1701-1714
     DOI: 10.1021/acs.jctc.0c01306
   
   for ONIOM refer to:
   * C. Plett, A. Katbashev, S. Ehlert, S. Grimme, M. Bursch,
     Phys. Chem. Chem. Phys., 2023, 25, 17860-17868. DOI: 10.1039/D3CP02178E
   
   for DIPRO refer to:
   * J. Kohn, N. Gildemeister, S. Grimme, D. Fazzi, A. Hansen,
     J. Chem. Phys., 2023, just accepted.
   
   for PTB refer to:
   * S. Grimme, M. Mueller, A. Hansen, J. Chem. Phys., 2023, 158, 124111.
     DOI: 10.1063/5.0137838
   
   with help from (in alphabetical order)
   P. Atkinson, C. Bannwarth, F. Bohle, G. Brandenburg, E. Caldeweyher
   M. Checinski, S. Dohm, S. Ehlert, S. Ehrlich, I. Gerasimov, C. Hölzer
   A. Katbashev, J. Kohn, J. Koopman, C. Lavigne, S. Lehtola, F. März, M. Müller,
   F. Musil, H. Neugebauer, J. Pisarek, C. Plett, P. Pracht, F. Pultar,
   J. Seibert, P. Shushkov, S. Spicher, M. Stahn, M. Steiner, T. Strunk,
   J. Stückrath, T. Rose, and J. Unsleber
   
 * started run on 2025/06/23 at 11:32:06.466     
$$$$$$$$$$$$$$$$$$$$$$$$$$$$$$$$$$$$$$$$$$$$$$$$$$$$$$$$$$$$$$$$$$$$$$$$
 CONSTRAINTS & SCANS: DEBUG SECTION
$$$$$$$$$$$$$$$$$$$$$$$$$$$$$$$$$$$$$$$$$$$$$$$$$$$$$$$$$$$$$$$$$$$$$$$$
   ID    Z sym.   atoms
    1    6 C      1-7, 9
    2    8 O      8, 10
    3    7 N      11
    4    1 H      12-16
$$$$$$$$$$$$$$$$$$$$$$$$$$$$$$$$$$$$$$$$$$$$$$$$$$$$$$$$$$$$$$$$$$$$$$$$

           -------------------------------------------------
          |                Calculation Setup                |
           -------------------------------------------------

          program call               : C:\Users\nkapa\Downloads\xtb-6.7.1pre-windows-x86_64\xtb-6.7.1\bin\xtb.EXE dft_tmp\258.xyz --gfn2 --parallel 8 --verbose
          coordinate file            : dft_tmp\258.xyz
          xtbhome directory          : C:\Users\nkapa\AppData\Roaming\SPB_Data
          path for xtb               : C:\Users\nkapa\Downloads\xtb-6.7.1pre-windows-x86_64\xtb-6.7.1\share\xtb
          xcontrol input file        : dft_tmp\258.xyz
          omp threads                :                     8


           -------------------------------------------------
          |                 G F N 2 - x T B                 |
           -------------------------------------------------

        Reference                      10.1021/acs.jctc.8b01176
      * Hamiltonian:
        H0-scaling (s, p, d)           1.850000    2.230000    2.230000
        zeta-weighting                 0.500000
      * Dispersion:
        s8                             2.700000
        a1                             0.520000
        a2                             5.000000
        s9                             5.000000
      * Repulsion:
        kExp                           1.500000    1.000000
        rExp                           1.000000
      * Coulomb:
        alpha                          2.000000
        third order                    shell-resolved
        anisotropic                    true
        a3                             3.000000
        a5                             4.000000
        cn-shift                       1.200000
        cn-exp                         4.000000
        max-rad                        5.000000


          ...................................................
          :                      SETUP                      :
          :.................................................:
          :  # basis functions                  49          :
          :  # atomic orbitals                  49          :
          :  # shells                           27          :
          :  # electrons                        54          :
          :  max. iterations                   250          :
          :  Hamiltonian                  GFN2-xTB          :
          :  restarted?                      false          :
          :  GBSA solvation                  false          :
          :  PC potential                    false          :
          :  electronic temp.          300.0000000     K    :
          :  accuracy                    1.0000000          :
          :  -> integral cutoff          0.2500000E+02      :
          :  -> integral neglect         0.1000000E-07      :
          :  -> SCF convergence          0.1000000E-05 Eh   :
          :  -> wf. convergence          0.1000000E-03 e    :
          :  Broyden damping             0.4000000          :
          :  net charge                          0          :
          :  unpaired electrons                  0          :
          ...................................................

 iter      E             dE          RMSdq      gap      omega  full diag
   1    -31.0292773 -0.310293E+02  0.558E+00    1.45       0.0  T
   2    -31.0846360 -0.553588E-01  0.315E+00    1.46       1.0  T
   3    -31.0877106 -0.307453E-02  0.188E+00    1.75       1.0  T
   4    -31.0957686 -0.805799E-02  0.460E-01    1.60       1.0  T
   5    -31.0987184 -0.294983E-02  0.104E-01    1.63       1.0  T
   6    -31.0987366 -0.182584E-04  0.525E-02    1.64       1.0  T
   7    -31.0987558 -0.191647E-04  0.208E-02    1.63       1.2  T
   8    -31.0987569 -0.111078E-05  0.985E-03    1.63       2.5  T
   9    -31.0987572 -0.284807E-06  0.444E-03    1.63       5.6  T
  10    -31.0987574 -0.188280E-06  0.136E-03    1.63      18.4  T
  11    -31.0987574  0.102616E-08  0.813E-04    1.63      30.8  T
  12    -31.0987574 -0.653574E-08  0.289E-04    1.63      86.4  T

   *** convergence criteria satisfied after 12 iterations ***

         #    Occupation            Energy/Eh            Energy/eV
      -------------------------------------------------------------
         1        2.0000           -0.7258974             -19.7527
       ...           ...                  ...                  ...
        21        2.0000           -0.4772655             -12.9871
        22        2.0000           -0.4731717             -12.8757
        23        2.0000           -0.4654029             -12.6643
        24        2.0000           -0.4533784             -12.3371
        25        2.0000           -0.4424133             -12.0387
        26        2.0000           -0.4143074             -11.2739
        27        2.0000           -0.4058114             -11.0427 (HOMO)
        28                         -0.3457481              -9.4083 (LUMO)
        29                         -0.2672916              -7.2734
        30                         -0.2445268              -6.6539
        31                         -0.1880319              -5.1166
        32                         -0.1172406              -3.1903
       ...                                ...                  ...
        49                          0.6731989              18.3187
      -------------------------------------------------------------
                  HL-Gap            0.0600633 Eh            1.6344 eV
             Fermi-level           -0.3757797 Eh          -10.2255 eV

 SCC (total)                   0 d,  0 h,  0 min,  0.018 sec
 SCC setup                      ...        0 min,  0.001 sec (  5.555%)
 Dispersion                     ...        0 min,  0.000 sec (  0.000%)
 classical contributions        ...        0 min,  0.000 sec (  0.000%)
 integral evaluation            ...        0 min,  0.001 sec (  5.555%)
 iterations                     ...        0 min,  0.012 sec ( 66.668%)
 molecular gradient             ...        0 min,  0.003 sec ( 16.667%)
 printout                       ...        0 min,  0.001 sec (  5.555%)

         :::::::::::::::::::::::::::::::::::::::::::::::::::::
         ::                     SUMMARY                     ::
         :::::::::::::::::::::::::::::::::::::::::::::::::::::
         :: total energy             -30.702623389839 Eh    ::
         :: gradient norm              0.178608514745 Eh/a0 ::
         :: HOMO-LUMO gap              1.634406011743 eV    ::
         ::.................................................::
         :: HOMO orbital eigv.       -11.042690039388 eV    ::
         :: LUMO orbital eigv.        -9.408284027645 eV    ::
         ::.................................................::
         :: SCC energy               -31.098729116739 Eh    ::
         :: -> isotropic ES            0.054695424602 Eh    ::
         :: -> anisotropic ES          0.001219518439 Eh    ::
         :: -> anisotropic XC          0.010368384028 Eh    ::
         :: -> dispersion             -0.014845510911 Eh    ::
         :: repulsion energy           0.396105726900 Eh    ::
         :: add. restraining           0.000000000000 Eh    ::
         :: total charge               0.000000000000 e     ::
         ::.................................................::
         :: atomisation energy         5.689911826301 Eh    ::
         :::::::::::::::::::::::::::::::::::::::::::::::::::::

           -------------------------------------------------
          |                Property Printout                |
           -------------------------------------------------

    * Orbital Energies and Occupations

         #    Occupation            Energy/Eh            Energy/eV
      -------------------------------------------------------------
         1        2.0000           -0.7258974             -19.7527
       ...           ...                  ...                  ...
        15        2.0000           -0.5410632             -14.7231
        16        2.0000           -0.5224403             -14.2163
        17        2.0000           -0.5222869             -14.2122
        18        2.0000           -0.5188234             -14.1179
        19        2.0000           -0.5182305             -14.1018
        20        2.0000           -0.5152386             -14.0204
        21        2.0000           -0.4772655             -12.9871
        22        2.0000           -0.4731717             -12.8757
        23        2.0000           -0.4654029             -12.6643
        24        2.0000           -0.4533784             -12.3371
        25        2.0000           -0.4424133             -12.0387
        26        2.0000           -0.4143074             -11.2739
        27        2.0000           -0.4058114             -11.0427 (HOMO)
        28                         -0.3457481              -9.4083 (LUMO)
        29                         -0.2672916              -7.2734
        30                         -0.2445268              -6.6539
        31                         -0.1880319              -5.1166
        32                         -0.1172406              -3.1903
        33                         -0.0696654              -1.8957
        34                          0.0531020               1.4450
        35                          0.0805600               2.1921
        36                          0.1095096               2.9799
        37                          0.1133556               3.0846
        38                          0.1237041               3.3662
       ...                                ...                  ...
        49                          0.6731989              18.3187
      -------------------------------------------------------------
                  HL-Gap            0.0600633 Eh            1.6344 eV
             Fermi-level           -0.3757797 Eh          -10.2255 eV

     #   Z          covCN         q      C6AA      α(0)
     1   6 C        2.911    -0.034    28.850     8.808
     2   6 C        2.910    -0.017    28.426     8.743
     3   6 C        2.908    -0.045    29.122     8.849
     4   6 C        3.041     0.073    26.325     8.415
     5   6 C        3.032    -0.027    28.652     8.780
     6   6 C        2.907    -0.008    28.226     8.711
     7   6 C        2.886     0.211    23.547     7.955
     8   8 O        0.856    -0.315    20.057     6.004
     9   6 C        2.873     0.255    22.717     7.813
    10   8 O        0.856    -0.352    20.745     6.107
    11   7 N        2.701    -0.167    24.606     7.367
    12   1 H        0.925     0.054     2.268     2.355
    13   1 H        0.925     0.057     2.238     2.340
    14   1 H        0.925     0.050     2.319     2.381
    15   1 H        0.925     0.071     2.070     2.250
    16   1 H        0.858     0.194     1.140     1.673

 Mol. C6AA /au·bohr⁶  :       3893.995775
 Mol. C8AA /au·bohr⁸  :      96697.656136
 Mol. α(0) /au        :         98.551158


Wiberg/Mayer (AO) data.
largest (>0.10) Wiberg bond orders for each atom

 ---------------------------------------------------------------------------
     #   Z sym  total        # sym  WBO       # sym  WBO       # sym  WBO
 ---------------------------------------------------------------------------
     1   6 C    3.984 --     6 C    1.443     2 C    1.427    12 H    0.970
     2   6 C    3.983 --     1 C    1.427     3 C    1.424    13 H    0.970
     3   6 C    3.988 --     2 C    1.424     4 C    1.398    14 H    0.968
     4   6 C    3.963 --     3 C    1.398     5 C    1.303    11 N    1.074
     5   6 C    3.986 --     6 C    1.377     4 C    1.303     7 C    1.072
     6   6 C    3.985 --     1 C    1.443     5 C    1.377    15 H    0.966
     7   6 C    3.945 --     8 O    1.780     5 C    1.072     9 C    0.973
     8   8 O    2.073 --     7 C    1.780
     9   6 C    3.947 --    10 O    1.730    11 N    1.158     7 C    0.973
    10   8 O    2.056 --     9 C    1.730    11 N    0.171
    11   7 N    3.477 --     9 C    1.158     4 C    1.074    16 H    0.932
                            10 O    0.171
    12   1 H    0.997 --     1 C    0.970
    13   1 H    0.996 --     2 C    0.970
    14   1 H    0.997 --     3 C    0.968
    15   1 H    0.994 --     6 C    0.966
    16   1 H    0.962 --    11 N    0.932
 ---------------------------------------------------------------------------

Topologies differ in total number of bonds
Writing topology from bond orders to xtbtopo.mol

molecular dipole:
                 x           y           z       tot (Debye)
 q only:       -2.268      -1.135       0.203
   full:       -2.398      -1.470       0.190       7.166
molecular quadrupole (traceless):
                xx          xy          yy          xz          yz          zz
 q only:      -11.557      -7.352       6.511       1.584       1.104       5.046
  q+dip:      -13.228      -9.192      10.118       1.372       1.851       3.110
   full:      -14.895      -9.253       7.708       2.156       1.269       7.186


           -------------------------------------------------
          | TOTAL ENERGY              -30.702623389839 Eh   |
          | GRADIENT NORM               0.178608514745 Eh/α |
          | HOMO-LUMO GAP               1.634406011743 eV   |
           -------------------------------------------------
########################################################################
[WARNING] Runtime exception occurred
-2- restart_readRestart: Dimension missmatch in restart file.
-1- restart_readRestart: Number of electron missmatch in restart file.
########################################################################

------------------------------------------------------------------------
 unit  open   action     filename
  129 false : read       dft_tmp\258.xyz
  129 false : read       dft_tmp\258.xyz
  129 false : read       dft_tmp\258.xyz
  129 false : read       C:\Users\nkapa\Downloads\xtb-6.7.1pre-windows-x86_64\xtb-6.7.1\share\xtb\param_gfn2-xtb.txt
  129 false : read       xtbrestart
  129 false : replaced   charges
  129 false : replaced   wbo
  129 false : replaced   xtbtopo.mol
  129 false : replaced   xtbrestart

------------------------------------------------------------------------
 * finished run on 2025/06/23 at 11:32:06.525     
------------------------------------------------------------------------
 total:
 * wall-time:     0 d,  0 h,  0 min,  0.056 sec
 *  cpu-time:     0 d,  0 h,  0 min,  0.344 sec
 * ratio c/w:     6.138 speedup
 SCF:
 * wall-time:     0 d,  0 h,  0 min,  0.018 sec
 *  cpu-time:     0 d,  0 h,  0 min,  0.078 sec
 * ratio c/w:     4.340 speedup

normal termination of xtb
