      -----------------------------------------------------------      
     |                   =====================                   |     
     |                           x T B                           |     
     |                   =====================                   |     
     |                         S. Grimme                         |     
     |          Mulliken Center for Theoretical Chemistry        |     
     |                    University of Bonn                     |     
      -----------------------------------------------------------      

   * xtb version 6.7.1pre (5071a88) compiled by 'Marcel@Raven' on 2024-07-23

   xtb is free software: you can redistribute it and/or modify it under
   the terms of the GNU Lesser General Public License as published by
   the Free Software Foundation, either version 3 of the License, or
   (at your option) any later version.
   
   xtb is distributed in the hope that it will be useful,
   but WITHOUT ANY WARRANTY; without even the implied warranty of
   MERCHANTABILITY or FITNESS FOR A PARTICULAR PURPOSE.  See the
   GNU Lesser General Public License for more details.
   
   Cite this work as:
   * C. Bannwarth, E. Caldeweyher, S. Ehlert, A. Hansen, P. Pracht,
     J. Seibert, S. Spicher, S. Grimme, WIREs Comput. Mol. Sci., 2020, 11,
     e01493. DOI: 10.1002/wcms.1493
   
   for GFN2-xTB:
   * C. Bannwarth, S. Ehlert and S. Grimme., J. Chem. Theory Comput., 2019,
     15, 1652-1671. DOI: 10.1021/acs.jctc.8b01176
   for GFN1-xTB:
   * S. Grimme, C. Bannwarth, P. Shushkov, J. Chem. Theory Comput., 2017,
     13, 1989-2009. DOI: 10.1021/acs.jctc.7b00118
   for GFN0-xTB:
   * P. Pracht, E. Caldeweyher, S. Ehlert, S. Grimme, ChemRxiv, 2019, preprint.
     DOI: 10.26434/chemrxiv.8326202.v1
   for GFN-FF:
   * S. Spicher and S. Grimme, Angew. Chem. Int. Ed., 2020, 59, 15665-15673.
     DOI: 10.1002/anie.202004239
   
   for ALPB and GBSA implicit solvation:
   * S. Ehlert, M. Stahn, S. Spicher, S. Grimme, J. Chem. Theory Comput.,
     2021, 17, 4250-4261. DOI: 10.1021/acs.jctc.1c00471
   
   for ddCOSMO and CPCM-X implicit solvation:
   * M. Stahn, S. Ehlert, S. Grimme, J. Phys. Chem. A,
     2023, XX, XXXX-XXXX. DOI: 10.1021/acs.jpca.3c04382
   
   for DFT-D4:
   * E. Caldeweyher, C. Bannwarth and S. Grimme, J. Chem. Phys., 2017,
     147, 034112. DOI: 10.1063/1.4993215
   * E. Caldeweyher, S. Ehlert, A. Hansen, H. Neugebauer, S. Spicher,
     C. Bannwarth and S. Grimme, J. Chem. Phys., 2019, 150, 154122.
     DOI: 10.1063/1.5090222
   * E. Caldeweyher, J.-M. Mewes, S. Ehlert and S. Grimme, Phys. Chem. Chem. Phys.
     2020, 22, 8499-8512. DOI: 10.1039/D0CP00502A
   
   for sTDA-xTB:
   * S. Grimme and C. Bannwarth, J. Chem. Phys., 2016, 145, 054103.
     DOI: 10.1063/1.4959605
   
   in the mass-spec context:
   * V. Asgeirsson, C. Bauer and S. Grimme, Chem. Sci., 2017, 8, 4879.
     DOI: 10.1039/c7sc00601b
   * J. Koopman and S. Grimme, ACS Omega 2019, 4, 12, 15120-15133.
     DOI: 10.1021/acsomega.9b02011
   
   for metadynamics refer to:
   * S. Grimme, J. Chem. Theory Comput., 2019, 155, 2847-2862
     DOI: 10.1021/acs.jctc.9b00143
   
   for SPH calculations refer to:
   * S. Spicher and S. Grimme, J. Chem. Theory Comput., 2021, 17, 1701-1714
     DOI: 10.1021/acs.jctc.0c01306
   
   for ONIOM refer to:
   * C. Plett, A. Katbashev, S. Ehlert, S. Grimme, M. Bursch,
     Phys. Chem. Chem. Phys., 2023, 25, 17860-17868. DOI: 10.1039/D3CP02178E
   
   for DIPRO refer to:
   * J. Kohn, N. Gildemeister, S. Grimme, D. Fazzi, A. Hansen,
     J. Chem. Phys., 2023, just accepted.
   
   for PTB refer to:
   * S. Grimme, M. Mueller, A. Hansen, J. Chem. Phys., 2023, 158, 124111.
     DOI: 10.1063/5.0137838
   
   with help from (in alphabetical order)
   P. Atkinson, C. Bannwarth, F. Bohle, G. Brandenburg, E. Caldeweyher
   M. Checinski, S. Dohm, S. Ehlert, S. Ehrlich, I. Gerasimov, C. Hölzer
   A. Katbashev, J. Kohn, J. Koopman, C. Lavigne, S. Lehtola, F. März, M. Müller,
   F. Musil, H. Neugebauer, J. Pisarek, C. Plett, P. Pracht, F. Pultar,
   J. Seibert, P. Shushkov, S. Spicher, M. Stahn, M. Steiner, T. Strunk,
   J. Stückrath, T. Rose, and J. Unsleber
   
 * started run on 2025/06/23 at 11:32:07.589     
$$$$$$$$$$$$$$$$$$$$$$$$$$$$$$$$$$$$$$$$$$$$$$$$$$$$$$$$$$$$$$$$$$$$$$$$
 CONSTRAINTS & SCANS: DEBUG SECTION
$$$$$$$$$$$$$$$$$$$$$$$$$$$$$$$$$$$$$$$$$$$$$$$$$$$$$$$$$$$$$$$$$$$$$$$$
   ID    Z sym.   atoms
    1    6 C      1, 3-8, 10, 12
    2    8 O      2, 11
    3    7 N      9
    4    1 H      13-21
$$$$$$$$$$$$$$$$$$$$$$$$$$$$$$$$$$$$$$$$$$$$$$$$$$$$$$$$$$$$$$$$$$$$$$$$

           -------------------------------------------------
          |                Calculation Setup                |
           -------------------------------------------------

          program call               : C:\Users\nkapa\Downloads\xtb-6.7.1pre-windows-x86_64\xtb-6.7.1\bin\xtb.EXE dft_tmp\267.xyz --gfn2 --parallel 8 --verbose
          coordinate file            : dft_tmp\267.xyz
          xtbhome directory          : C:\Users\nkapa\AppData\Roaming\SPB_Data
          path for xtb               : C:\Users\nkapa\Downloads\xtb-6.7.1pre-windows-x86_64\xtb-6.7.1\share\xtb
          xcontrol input file        : dft_tmp\267.xyz
          omp threads                :                     8


           -------------------------------------------------
          |                 G F N 2 - x T B                 |
           -------------------------------------------------

        Reference                      10.1021/acs.jctc.8b01176
      * Hamiltonian:
        H0-scaling (s, p, d)           1.850000    2.230000    2.230000
        zeta-weighting                 0.500000
      * Dispersion:
        s8                             2.700000
        a1                             0.520000
        a2                             5.000000
        s9                             5.000000
      * Repulsion:
        kExp                           1.500000    1.000000
        rExp                           1.000000
      * Coulomb:
        alpha                          2.000000
        third order                    shell-resolved
        anisotropic                    true
        a3                             3.000000
        a5                             4.000000
        cn-shift                       1.200000
        cn-exp                         4.000000
        max-rad                        5.000000


          ...................................................
          :                      SETUP                      :
          :.................................................:
          :  # basis functions                  57          :
          :  # atomic orbitals                  57          :
          :  # shells                           33          :
          :  # electrons                        62          :
          :  max. iterations                   250          :
          :  Hamiltonian                  GFN2-xTB          :
          :  restarted?                      false          :
          :  GBSA solvation                  false          :
          :  PC potential                    false          :
          :  electronic temp.          300.0000000     K    :
          :  accuracy                    1.0000000          :
          :  -> integral cutoff          0.2500000E+02      :
          :  -> integral neglect         0.1000000E-07      :
          :  -> SCF convergence          0.1000000E-05 Eh   :
          :  -> wf. convergence          0.1000000E-03 e    :
          :  Broyden damping             0.4000000          :
          :  net charge                          0          :
          :  unpaired electrons                  0          :
          ...................................................

 iter      E             dE          RMSdq      gap      omega  full diag
   1    -35.2786871 -0.352787E+02  0.481E+00    3.30       0.0  T
   2    -35.3447729 -0.660857E-01  0.266E+00    3.61       1.0  T
   3    -35.3456969 -0.924059E-03  0.130E+00    3.50       1.0  T
   4    -35.3491398 -0.344286E-02  0.332E-01    3.42       1.0  T
   5    -35.3508879 -0.174811E-02  0.971E-02    3.50       1.0  T
   6    -35.3509066 -0.187076E-04  0.531E-02    3.51       1.0  T
   7    -35.3509214 -0.147686E-04  0.223E-02    3.51       1.0  T
   8    -35.3509243 -0.293730E-05  0.583E-03    3.51       3.7  T
   9    -35.3509244 -0.578416E-07  0.246E-03    3.51       8.9  T
  10    -35.3509244 -0.348745E-07  0.103E-03    3.51      21.1  T
  11    -35.3509244 -0.685267E-08  0.430E-04    3.51      50.7  T
  12    -35.3509244 -0.513516E-09  0.175E-04    3.51     124.8  T

   *** convergence criteria satisfied after 12 iterations ***

         #    Occupation            Energy/Eh            Energy/eV
      -------------------------------------------------------------
         1        2.0000           -0.7100598             -19.3217
       ...           ...                  ...                  ...
        25        2.0000           -0.4690311             -12.7630
        26        2.0000           -0.4631760             -12.6037
        27        2.0000           -0.4348851             -11.8338
        28        2.0000           -0.4254128             -11.5761
        29        2.0000           -0.4109460             -11.1824
        30        2.0000           -0.4005954             -10.9008
        31        2.0000           -0.3736418             -10.1673 (HOMO)
        32                         -0.2448091              -6.6616 (LUMO)
        33                         -0.2402380              -6.5372
        34                         -0.2092433              -5.6938
        35                         -0.1042139              -2.8358
        36                         -0.0469140              -1.2766
       ...                                ...                  ...
        57                          0.6330892              17.2272
      -------------------------------------------------------------
                  HL-Gap            0.1288327 Eh            3.5057 eV
             Fermi-level           -0.3092255 Eh           -8.4145 eV

 SCC (total)                   0 d,  0 h,  0 min,  0.027 sec
 SCC setup                      ...        0 min,  0.001 sec (  3.703%)
 Dispersion                     ...        0 min,  0.000 sec (  0.000%)
 classical contributions        ...        0 min,  0.000 sec (  0.000%)
 integral evaluation            ...        0 min,  0.002 sec (  7.408%)
 iterations                     ...        0 min,  0.018 sec ( 66.666%)
 molecular gradient             ...        0 min,  0.005 sec ( 18.519%)
 printout                       ...        0 min,  0.001 sec (  3.703%)

         :::::::::::::::::::::::::::::::::::::::::::::::::::::
         ::                     SUMMARY                     ::
         :::::::::::::::::::::::::::::::::::::::::::::::::::::
         :: total energy             -34.920217033955 Eh    ::
         :: gradient norm              0.137964902932 Eh/a0 ::
         :: HOMO-LUMO gap              3.505715727425 eV    ::
         ::.................................................::
         :: HOMO orbital eigv.       -10.167311481055 eV    ::
         :: LUMO orbital eigv.        -6.661595753630 eV    ::
         ::.................................................::
         :: SCC energy               -35.350952455986 Eh    ::
         :: -> isotropic ES            0.055411353167 Eh    ::
         :: -> anisotropic ES          0.002742722216 Eh    ::
         :: -> anisotropic XC          0.011597967793 Eh    ::
         :: -> dispersion             -0.018115303367 Eh    ::
         :: repulsion energy           0.430735422031 Eh    ::
         :: add. restraining           0.000000000000 Eh    ::
         :: total charge               0.000000000000 e     ::
         ::.................................................::
         :: atomisation energy         6.710694950109 Eh    ::
         :::::::::::::::::::::::::::::::::::::::::::::::::::::

           -------------------------------------------------
          |                Property Printout                |
           -------------------------------------------------

    * Orbital Energies and Occupations

         #    Occupation            Energy/Eh            Energy/eV
      -------------------------------------------------------------
         1        2.0000           -0.7100598             -19.3217
       ...           ...                  ...                  ...
        19        2.0000           -0.5020773             -13.6622
        20        2.0000           -0.4941523             -13.4466
        21        2.0000           -0.4912927             -13.3688
        22        2.0000           -0.4902343             -13.3400
        23        2.0000           -0.4778862             -13.0039
        24        2.0000           -0.4756745             -12.9438
        25        2.0000           -0.4690311             -12.7630
        26        2.0000           -0.4631760             -12.6037
        27        2.0000           -0.4348851             -11.8338
        28        2.0000           -0.4254128             -11.5761
        29        2.0000           -0.4109460             -11.1824
        30        2.0000           -0.4005954             -10.9008
        31        2.0000           -0.3736418             -10.1673 (HOMO)
        32                         -0.2448091              -6.6616 (LUMO)
        33                         -0.2402380              -6.5372
        34                         -0.2092433              -5.6938
        35                         -0.1042139              -2.8358
        36                         -0.0469140              -1.2766
        37                         -0.0281997              -0.7674
        38                          0.0517601               1.4085
        39                          0.0858374               2.3358
        40                          0.0986434               2.6842
        41                          0.1095459               2.9809
        42                          0.1231567               3.3513
       ...                                ...                  ...
        57                          0.6330892              17.2272
      -------------------------------------------------------------
                  HL-Gap            0.1288327 Eh            3.5057 eV
             Fermi-level           -0.3092255 Eh           -8.4145 eV

     #   Z          covCN         q      C6AA      α(0)
     1   6 C        3.617     0.040    20.364     6.509
     2   8 O        1.700    -0.284    18.724     5.842
     3   6 C        2.836     0.135    25.051     8.202
     4   6 C        2.910    -0.058    29.451     8.899
     5   6 C        3.045    -0.006    28.123     8.698
     6   6 C        3.020     0.054    26.776     8.488
     7   6 C        2.908    -0.055    29.366     8.886
     8   6 C        2.911    -0.064    29.601     8.921
     9   7 N        2.700    -0.163    24.519     7.354
    10   6 C        2.896     0.269    22.469     7.772
    11   8 O        0.856    -0.431    22.303     6.332
    12   6 C        3.828    -0.083    22.056     6.682
    13   1 H        0.922     0.040     2.451     2.449
    14   1 H        0.922     0.040     2.451     2.449
    15   1 H        0.922     0.063     2.160     2.299
    16   1 H        0.925     0.057     2.231     2.336
    17   1 H        0.925     0.041     2.430     2.438
    18   1 H        0.925     0.045     2.386     2.416
    19   1 H        0.858     0.183     1.195     1.713
    20   1 H        0.922     0.088     1.896     2.153
    21   1 H        0.922     0.088     1.896     2.153

 Mol. C6AA /au·bohr⁶  :       5271.242324
 Mol. C8AA /au·bohr⁸  :     125595.211379
 Mol. α(0) /au        :        112.990279


Wiberg/Mayer (AO) data.
largest (>0.10) Wiberg bond orders for each atom

 ---------------------------------------------------------------------------
     #   Z sym  total        # sym  WBO       # sym  WBO       # sym  WBO
 ---------------------------------------------------------------------------
     1   6 C    3.945 --     2 O    0.985    14 H    0.978    13 H    0.978
                            15 H    0.978
     2   8 O    2.201 --     3 C    1.042     1 C    0.985
     3   6 C    3.925 --     4 C    1.365     8 C    1.364     2 O    1.042
     4   6 C    3.986 --     5 C    1.431     3 C    1.365    16 H    0.967
                             7 C    0.106
     5   6 C    3.986 --     4 C    1.431     6 C    1.343    12 C    1.015
     6   6 C    3.961 --     7 C    1.375     5 C    1.343     9 N    1.077
     7   6 C    3.988 --     8 C    1.445     6 C    1.375    17 H    0.969
                             4 C    0.106
     8   6 C    3.985 --     7 C    1.445     3 C    1.364    18 H    0.968
     9   7 N    3.480 --    10 C    1.171     6 C    1.077    19 H    0.936
                            11 O    0.170
    10   6 C    3.944 --    11 O    1.704     9 N    1.171    12 C    0.997
    11   8 O    1.993 --    10 C    1.704     9 N    0.170
    12   6 C    3.995 --     5 C    1.015    10 C    0.997    21 H    0.937
                            20 H    0.937
    13   1 H    0.998 --     1 C    0.978
    14   1 H    0.998 --     1 C    0.978
    15   1 H    0.995 --     1 C    0.978
    16   1 H    0.996 --     4 C    0.967
    17   1 H    0.998 --     7 C    0.969
    18   1 H    0.997 --     8 C    0.968
    19   1 H    0.966 --     9 N    0.936
    20   1 H    0.992 --    12 C    0.937
    21   1 H    0.992 --    12 C    0.937
 ---------------------------------------------------------------------------

Topologies differ in total number of bonds
Writing topology from bond orders to xtbtopo.mol

molecular dipole:
                 x           y           z       tot (Debye)
 q only:        1.610      -0.422      -0.141
   full:        1.782      -0.725      -0.172       4.909
molecular quadrupole (traceless):
                xx          xy          yy          xz          yz          zz
 q only:      -14.100      -0.378      10.133       0.626       0.576       3.966
  q+dip:      -17.678       0.683      14.577       0.816       0.948       3.101
   full:      -17.869       0.377      12.500       0.975       0.701       5.370


           -------------------------------------------------
          | TOTAL ENERGY              -34.920217033955 Eh   |
          | GRADIENT NORM               0.137964902932 Eh/α |
          | HOMO-LUMO GAP               3.505715727425 eV   |
           -------------------------------------------------
########################################################################
[WARNING] Runtime exception occurred
-2- restart_readRestart: Dimension missmatch in restart file.
-1- restart_readRestart: Number of electron missmatch in restart file.
########################################################################

------------------------------------------------------------------------
 unit  open   action     filename
  129 false : read       dft_tmp\267.xyz
  129 false : read       dft_tmp\267.xyz
  129 false : read       dft_tmp\267.xyz
  129 false : read       C:\Users\nkapa\Downloads\xtb-6.7.1pre-windows-x86_64\xtb-6.7.1\share\xtb\param_gfn2-xtb.txt
  129 false : read       xtbrestart
  129 false : replaced   charges
  129 false : replaced   wbo
  129 false : replaced   xtbtopo.mol
  129 false : replaced   xtbrestart

------------------------------------------------------------------------
 * finished run on 2025/06/23 at 11:32:07.663     
------------------------------------------------------------------------
 total:
 * wall-time:     0 d,  0 h,  0 min,  0.072 sec
 *  cpu-time:     0 d,  0 h,  0 min,  0.438 sec
 * ratio c/w:     6.076 speedup
 SCF:
 * wall-time:     0 d,  0 h,  0 min,  0.027 sec
 *  cpu-time:     0 d,  0 h,  0 min,  0.250 sec
 * ratio c/w:     9.259 speedup

normal termination of xtb
