      -----------------------------------------------------------      
     |                   =====================                   |     
     |                           x T B                           |     
     |                   =====================                   |     
     |                         S. Grimme                         |     
     |          Mulliken Center for Theoretical Chemistry        |     
     |                    University of Bonn                     |     
      -----------------------------------------------------------      

   * xtb version 6.7.1pre (5071a88) compiled by 'Marcel@Raven' on 2024-07-23

   xtb is free software: you can redistribute it and/or modify it under
   the terms of the GNU Lesser General Public License as published by
   the Free Software Foundation, either version 3 of the License, or
   (at your option) any later version.
   
   xtb is distributed in the hope that it will be useful,
   but WITHOUT ANY WARRANTY; without even the implied warranty of
   MERCHANTABILITY or FITNESS FOR A PARTICULAR PURPOSE.  See the
   GNU Lesser General Public License for more details.
   
   Cite this work as:
   * C. Bannwarth, E. Caldeweyher, S. Ehlert, A. Hansen, P. Pracht,
     J. Seibert, S. Spicher, S. Grimme, WIREs Comput. Mol. Sci., 2020, 11,
     e01493. DOI: 10.1002/wcms.1493
   
   for GFN2-xTB:
   * C. Bannwarth, S. Ehlert and S. Grimme., J. Chem. Theory Comput., 2019,
     15, 1652-1671. DOI: 10.1021/acs.jctc.8b01176
   for GFN1-xTB:
   * S. Grimme, C. Bannwarth, P. Shushkov, J. Chem. Theory Comput., 2017,
     13, 1989-2009. DOI: 10.1021/acs.jctc.7b00118
   for GFN0-xTB:
   * P. Pracht, E. Caldeweyher, S. Ehlert, S. Grimme, ChemRxiv, 2019, preprint.
     DOI: 10.26434/chemrxiv.8326202.v1
   for GFN-FF:
   * S. Spicher and S. Grimme, Angew. Chem. Int. Ed., 2020, 59, 15665-15673.
     DOI: 10.1002/anie.202004239
   
   for ALPB and GBSA implicit solvation:
   * S. Ehlert, M. Stahn, S. Spicher, S. Grimme, J. Chem. Theory Comput.,
     2021, 17, 4250-4261. DOI: 10.1021/acs.jctc.1c00471
   
   for ddCOSMO and CPCM-X implicit solvation:
   * M. Stahn, S. Ehlert, S. Grimme, J. Phys. Chem. A,
     2023, XX, XXXX-XXXX. DOI: 10.1021/acs.jpca.3c04382
   
   for DFT-D4:
   * E. Caldeweyher, C. Bannwarth and S. Grimme, J. Chem. Phys., 2017,
     147, 034112. DOI: 10.1063/1.4993215
   * E. Caldeweyher, S. Ehlert, A. Hansen, H. Neugebauer, S. Spicher,
     C. Bannwarth and S. Grimme, J. Chem. Phys., 2019, 150, 154122.
     DOI: 10.1063/1.5090222
   * E. Caldeweyher, J.-M. Mewes, S. Ehlert and S. Grimme, Phys. Chem. Chem. Phys.
     2020, 22, 8499-8512. DOI: 10.1039/D0CP00502A
   
   for sTDA-xTB:
   * S. Grimme and C. Bannwarth, J. Chem. Phys., 2016, 145, 054103.
     DOI: 10.1063/1.4959605
   
   in the mass-spec context:
   * V. Asgeirsson, C. Bauer and S. Grimme, Chem. Sci., 2017, 8, 4879.
     DOI: 10.1039/c7sc00601b
   * J. Koopman and S. Grimme, ACS Omega 2019, 4, 12, 15120-15133.
     DOI: 10.1021/acsomega.9b02011
   
   for metadynamics refer to:
   * S. Grimme, J. Chem. Theory Comput., 2019, 155, 2847-2862
     DOI: 10.1021/acs.jctc.9b00143
   
   for SPH calculations refer to:
   * S. Spicher and S. Grimme, J. Chem. Theory Comput., 2021, 17, 1701-1714
     DOI: 10.1021/acs.jctc.0c01306
   
   for ONIOM refer to:
   * C. Plett, A. Katbashev, S. Ehlert, S. Grimme, M. Bursch,
     Phys. Chem. Chem. Phys., 2023, 25, 17860-17868. DOI: 10.1039/D3CP02178E
   
   for DIPRO refer to:
   * J. Kohn, N. Gildemeister, S. Grimme, D. Fazzi, A. Hansen,
     J. Chem. Phys., 2023, just accepted.
   
   for PTB refer to:
   * S. Grimme, M. Mueller, A. Hansen, J. Chem. Phys., 2023, 158, 124111.
     DOI: 10.1063/5.0137838
   
   with help from (in alphabetical order)
   P. Atkinson, C. Bannwarth, F. Bohle, G. Brandenburg, E. Caldeweyher
   M. Checinski, S. Dohm, S. Ehlert, S. Ehrlich, I. Gerasimov, C. Hölzer
   A. Katbashev, J. Kohn, J. Koopman, C. Lavigne, S. Lehtola, F. März, M. Müller,
   F. Musil, H. Neugebauer, J. Pisarek, C. Plett, P. Pracht, F. Pultar,
   J. Seibert, P. Shushkov, S. Spicher, M. Stahn, M. Steiner, T. Strunk,
   J. Stückrath, T. Rose, and J. Unsleber
   
 * started run on 2025/06/23 at 11:32:08.385     
$$$$$$$$$$$$$$$$$$$$$$$$$$$$$$$$$$$$$$$$$$$$$$$$$$$$$$$$$$$$$$$$$$$$$$$$
 CONSTRAINTS & SCANS: DEBUG SECTION
$$$$$$$$$$$$$$$$$$$$$$$$$$$$$$$$$$$$$$$$$$$$$$$$$$$$$$$$$$$$$$$$$$$$$$$$
   ID    Z sym.   atoms
    1    6 C      1-10
    2    8 O      11
    3    1 H      12-29
$$$$$$$$$$$$$$$$$$$$$$$$$$$$$$$$$$$$$$$$$$$$$$$$$$$$$$$$$$$$$$$$$$$$$$$$

           -------------------------------------------------
          |                Calculation Setup                |
           -------------------------------------------------

          program call               : C:\Users\nkapa\Downloads\xtb-6.7.1pre-windows-x86_64\xtb-6.7.1\bin\xtb.EXE dft_tmp\273.xyz --gfn2 --parallel 8 --verbose
          coordinate file            : dft_tmp\273.xyz
          xtbhome directory          : C:\Users\nkapa\AppData\Roaming\SPB_Data
          path for xtb               : C:\Users\nkapa\Downloads\xtb-6.7.1pre-windows-x86_64\xtb-6.7.1\share\xtb
          xcontrol input file        : dft_tmp\273.xyz
          omp threads                :                     8


           -------------------------------------------------
          |                 G F N 2 - x T B                 |
           -------------------------------------------------

        Reference                      10.1021/acs.jctc.8b01176
      * Hamiltonian:
        H0-scaling (s, p, d)           1.850000    2.230000    2.230000
        zeta-weighting                 0.500000
      * Dispersion:
        s8                             2.700000
        a1                             0.520000
        a2                             5.000000
        s9                             5.000000
      * Repulsion:
        kExp                           1.500000    1.000000
        rExp                           1.000000
      * Coulomb:
        alpha                          2.000000
        third order                    shell-resolved
        anisotropic                    true
        a3                             3.000000
        a5                             4.000000
        cn-shift                       1.200000
        cn-exp                         4.000000
        max-rad                        5.000000


          ...................................................
          :                      SETUP                      :
          :.................................................:
          :  # basis functions                  62          :
          :  # atomic orbitals                  62          :
          :  # shells                           40          :
          :  # electrons                        64          :
          :  max. iterations                   250          :
          :  Hamiltonian                  GFN2-xTB          :
          :  restarted?                      false          :
          :  GBSA solvation                  false          :
          :  PC potential                    false          :
          :  electronic temp.          300.0000000     K    :
          :  accuracy                    1.0000000          :
          :  -> integral cutoff          0.2500000E+02      :
          :  -> integral neglect         0.1000000E-07      :
          :  -> SCF convergence          0.1000000E-05 Eh   :
          :  -> wf. convergence          0.1000000E-03 e    :
          :  Broyden damping             0.4000000          :
          :  net charge                          0          :
          :  unpaired electrons                  0          :
          ...................................................

 iter      E             dE          RMSdq      gap      omega  full diag
   1    -35.0235873 -0.350236E+02  0.298E+00    4.89       0.0  T
   2    -35.0753361 -0.517488E-01  0.169E+00    4.81       1.0  T
   3    -35.0720824  0.325362E-02  0.856E-01    4.81       1.0  T
   4    -35.0740565 -0.197402E-02  0.505E-01    4.77       1.0  T
   5    -35.0791275 -0.507101E-02  0.945E-02    4.78       1.0  T
   6    -35.0792111 -0.836678E-04  0.472E-02    4.77       1.0  T
   7    -35.0792148 -0.366913E-05  0.104E-02    4.77       1.8  T
   8    -35.0792153 -0.466165E-06  0.319E-03    4.77       5.8  T
   9    -35.0792153 -0.206118E-07  0.111E-03    4.77      16.7  T
  10    -35.0792153 -0.382985E-08  0.374E-04    4.77      49.7  T
  11    -35.0792153 -0.283109E-09  0.128E-04    4.77     145.0  T

   *** convergence criteria satisfied after 11 iterations ***

         #    Occupation            Energy/Eh            Energy/eV
      -------------------------------------------------------------
         1        2.0000           -0.6777646             -18.4429
       ...           ...                  ...                  ...
        26        2.0000           -0.4428851             -12.0515
        27        2.0000           -0.4364779             -11.8772
        28        2.0000           -0.4284424             -11.6585
        29        2.0000           -0.4168998             -11.3444
        30        2.0000           -0.4092451             -11.1361
        31        2.0000           -0.3926758             -10.6853
        32        2.0000           -0.3674003              -9.9975 (HOMO)
        33                         -0.1919416              -5.2230 (LUMO)
        34                          0.0263672               0.7175
        35                          0.0300870               0.8187
        36                          0.0510828               1.3900
        37                          0.0673733               1.8333
       ...                                ...                  ...
        62                          0.5791625              15.7598
      -------------------------------------------------------------
                  HL-Gap            0.1754587 Eh            4.7745 eV
             Fermi-level           -0.2796709 Eh           -7.6102 eV

 SCC (total)                   0 d,  0 h,  0 min,  0.024 sec
 SCC setup                      ...        0 min,  0.001 sec (  4.166%)
 Dispersion                     ...        0 min,  0.000 sec (  0.000%)
 classical contributions        ...        0 min,  0.000 sec (  0.000%)
 integral evaluation            ...        0 min,  0.002 sec (  8.334%)
 iterations                     ...        0 min,  0.015 sec ( 62.500%)
 molecular gradient             ...        0 min,  0.005 sec ( 20.834%)
 printout                       ...        0 min,  0.001 sec (  4.166%)

         :::::::::::::::::::::::::::::::::::::::::::::::::::::
         ::                     SUMMARY                     ::
         :::::::::::::::::::::::::::::::::::::::::::::::::::::
         :: total energy             -34.650484226079 Eh    ::
         :: gradient norm              0.074215303197 Eh/a0 ::
         :: HOMO-LUMO gap              4.774472965670 eV    ::
         ::.................................................::
         :: HOMO orbital eigv.        -9.997470371137 eV    ::
         :: LUMO orbital eigv.        -5.222997405467 eV    ::
         ::.................................................::
         :: SCC energy               -35.079058623818 Eh    ::
         :: -> isotropic ES            0.030171462539 Eh    ::
         :: -> anisotropic ES          0.009726024732 Eh    ::
         :: -> anisotropic XC          0.016938325419 Eh    ::
         :: -> dispersion             -0.023217140015 Eh    ::
         :: repulsion energy           0.428574397739 Eh    ::
         :: add. restraining           0.000000000000 Eh    ::
         :: total charge              -0.000000000000 e     ::
         ::.................................................::
         :: atomisation energy         7.573207025887 Eh    ::
         :::::::::::::::::::::::::::::::::::::::::::::::::::::

           -------------------------------------------------
          |                Property Printout                |
           -------------------------------------------------

    * Orbital Energies and Occupations

         #    Occupation            Energy/Eh            Energy/eV
      -------------------------------------------------------------
         1        2.0000           -0.6777646             -18.4429
       ...           ...                  ...                  ...
        20        2.0000           -0.4674775             -12.7207
        21        2.0000           -0.4666422             -12.6980
        22        2.0000           -0.4596922             -12.5089
        23        2.0000           -0.4560274             -12.4091
        24        2.0000           -0.4495008             -12.2315
        25        2.0000           -0.4479725             -12.1900
        26        2.0000           -0.4428851             -12.0515
        27        2.0000           -0.4364779             -11.8772
        28        2.0000           -0.4284424             -11.6585
        29        2.0000           -0.4168998             -11.3444
        30        2.0000           -0.4092451             -11.1361
        31        2.0000           -0.3926758             -10.6853
        32        2.0000           -0.3674003              -9.9975 (HOMO)
        33                         -0.1919416              -5.2230 (LUMO)
        34                          0.0263672               0.7175
        35                          0.0300870               0.8187
        36                          0.0510828               1.3900
        37                          0.0673733               1.8333
        38                          0.0811089               2.2071
        39                          0.0881937               2.3999
        40                          0.1008901               2.7454
        41                          0.1069582               2.9105
        42                          0.1115949               3.0367
        43                          0.1253088               3.4098
       ...                                ...                  ...
        62                          0.5791625              15.7598
      -------------------------------------------------------------
                  HL-Gap            0.1754587 Eh            4.7745 eV
             Fermi-level           -0.2796709 Eh           -7.6102 eV

     #   Z          covCN         q      C6AA      α(0)
     1   6 C        3.749    -0.103    22.538     6.771
     2   6 C        2.938    -0.001    28.057     8.687
     3   6 C        2.895    -0.060    29.484     8.903
     4   6 C        3.799    -0.056    21.591     6.616
     5   6 C        3.843    -0.036    21.184     6.547
     6   6 C        3.797    -0.051    21.494     6.601
     7   6 C        3.800    -0.054    21.553     6.610
     8   6 C        3.766     0.145    18.274     6.093
     9   6 C        3.742    -0.114    22.758     6.806
    10   6 C        3.744    -0.107    22.612     6.783
    11   8 O        1.652    -0.445    21.742     6.294
    12   1 H        0.922     0.034     2.533     2.489
    13   1 H        0.921     0.040     2.453     2.450
    14   1 H        0.922     0.040     2.452     2.449
    15   1 H        0.925     0.023     2.689     2.564
    16   1 H        0.922     0.034     2.524     2.485
    17   1 H        0.922     0.034     2.525     2.485
    18   1 H        0.921     0.041     2.434     2.440
    19   1 H        0.922     0.025     2.666     2.553
    20   1 H        0.921     0.027     2.633     2.538
    21   1 H        0.921     0.031     2.567     2.506
    22   1 H        0.921     0.037     2.484     2.465
    23   1 H        0.922     0.029     2.598     2.521
    24   1 H        0.922     0.036     2.498     2.472
    25   1 H        0.921     0.041     2.439     2.442
    26   1 H        0.921     0.047     2.352     2.399
    27   1 H        0.922     0.035     2.521     2.483
    28   1 H        0.921     0.044     2.391     2.418
    29   1 H        0.801     0.283     0.777     1.385

 Mol. C6AA /au·bohr⁶  :       6423.427274
 Mol. C8AA /au·bohr⁸  :     139969.754983
 Mol. α(0) /au        :        120.254962


Wiberg/Mayer (AO) data.
largest (>0.10) Wiberg bond orders for each atom

 ---------------------------------------------------------------------------
     #   Z sym  total        # sym  WBO       # sym  WBO       # sym  WBO
 ---------------------------------------------------------------------------
     1   6 C    3.997 --     2 C    1.020    12 H    0.987    13 H    0.975
                            14 H    0.975
     2   6 C    3.985 --     3 C    1.882     1 C    1.020     7 C    1.012
     3   6 C    3.985 --     2 C    1.882     4 C    1.022    15 H    0.967
     4   6 C    3.997 --     3 C    1.022     5 C    0.995    16 H    0.968
                            17 H    0.955
     5   6 C    3.991 --     6 C    0.998     4 C    0.995    18 H    0.966
                             8 C    0.954
     6   6 C    3.998 --     7 C    1.005     5 C    0.998    20 H    0.976
                            19 H    0.974
     7   6 C    3.997 --     2 C    1.012     6 C    1.005    21 H    0.969
                            22 H    0.959
     8   6 C    3.948 --    10 C    0.992     9 C    0.990    11 O    0.983
                             5 C    0.954
     9   6 C    3.995 --     8 C    0.990    25 H    0.985    24 H    0.983
                            23 H    0.982
    10   6 C    3.994 --     8 C    0.992    28 H    0.985    27 H    0.985
                            26 H    0.984
    11   8 O    1.968 --     8 C    0.983    29 H    0.897
    12   1 H    0.999 --     1 C    0.987
    13   1 H    0.998 --     1 C    0.975
    14   1 H    0.998 --     1 C    0.975
    15   1 H    0.999 --     3 C    0.967
    16   1 H    0.999 --     4 C    0.968
    17   1 H    0.999 --     4 C    0.955
    18   1 H    0.998 --     5 C    0.966
    19   1 H    0.999 --     6 C    0.974
    20   1 H    0.999 --     6 C    0.976
    21   1 H    0.999 --     7 C    0.969
    22   1 H    0.999 --     7 C    0.959
    23   1 H    0.999 --     9 C    0.982
    24   1 H    0.999 --     9 C    0.983
    25   1 H    0.998 --     9 C    0.985
    26   1 H    0.997 --    10 C    0.984
    27   1 H    0.999 --    10 C    0.985
    28   1 H    0.998 --    10 C    0.985
    29   1 H    0.920 --    11 O    0.897
 ---------------------------------------------------------------------------

Topologies differ in total number of bonds
Writing topology from bond orders to xtbtopo.mol

molecular dipole:
                 x           y           z       tot (Debye)
 q only:        0.148      -0.211       0.400
   full:        0.212      -0.374       0.572       1.818
molecular quadrupole (traceless):
                xx          xy          yy          xz          yz          zz
 q only:        0.183       0.324       3.210      -3.587       0.599      -3.393
  q+dip:       -0.770       0.918       4.989      -5.455       0.958      -4.219
   full:       -0.662       1.114       4.834      -5.204       0.766      -4.172


           -------------------------------------------------
          | TOTAL ENERGY              -34.650484226079 Eh   |
          | GRADIENT NORM               0.074215303197 Eh/α |
          | HOMO-LUMO GAP               4.774472965670 eV   |
           -------------------------------------------------
########################################################################
[WARNING] Runtime exception occurred
-2- restart_readRestart: Dimension missmatch in restart file.
-1- restart_readRestart: Number of electron missmatch in restart file.
########################################################################

------------------------------------------------------------------------
 unit  open   action     filename
  129 false : read       dft_tmp\273.xyz
  129 false : read       dft_tmp\273.xyz
  129 false : read       dft_tmp\273.xyz
  129 false : read       C:\Users\nkapa\Downloads\xtb-6.7.1pre-windows-x86_64\xtb-6.7.1\share\xtb\param_gfn2-xtb.txt
  129 false : read       xtbrestart
  129 false : replaced   charges
  129 false : replaced   wbo
  129 false : replaced   xtbtopo.mol
  129 false : replaced   xtbrestart

------------------------------------------------------------------------
 * finished run on 2025/06/23 at 11:32:08.456     
------------------------------------------------------------------------
 total:
 * wall-time:     0 d,  0 h,  0 min,  0.070 sec
 *  cpu-time:     0 d,  0 h,  0 min,  0.359 sec
 * ratio c/w:     5.134 speedup
 SCF:
 * wall-time:     0 d,  0 h,  0 min,  0.024 sec
 *  cpu-time:     0 d,  0 h,  0 min,  0.219 sec
 * ratio c/w:     9.115 speedup

normal termination of xtb
