40

C -3.898200 1.040218 -0.196238
C -2.988024 -0.081981 0.294077
C -1.537708 0.151362 -0.142765
C -0.625978 -0.975115 0.349853
N 0.748796 -0.731739 -0.077641
C 1.314845 -1.116758 -1.239207
C 2.608007 -0.634908 -1.269556
N 2.823019 0.065236 -0.138227
C 1.683195 -0.012948 0.575067
C 4.072862 0.686817 0.279312
C 2.479315 0.490291 0.369451
F 2.308107 0.562033 -0.999111
F 2.388956 1.759320 0.908683
F 3.727198 -0.035598 0.645026
S 1.223357 -0.551058 1.086256
O 1.267279 -1.909712 0.442237
O 1.505774 -0.702084 2.554208
N -0.336878 0.193414 0.895342
S -1.147209 -0.433683 -0.506691
O -1.530586 -1.868448 -0.274070
O -0.256895 -0.340398 -1.714066
C -2.619991 0.522331 -0.795669
F -3.280415 0.032210 -1.906245
F -2.278155 1.843756 -1.011347
F -3.449857 0.437626 0.305996
H -3.881587 1.093593 -1.305729
H -4.940125 0.844952 0.134255
H -3.569289 2.014901 0.223176
H -3.353298 -1.047586 -0.118884
H -3.042316 -0.130137 1.403623
H -1.487860 0.201015 -1.252857
H -1.176777 1.118977 0.270410
H -0.664478 -1.034482 1.459893
H -0.974647 -1.949329 -0.058238
H 0.825548 -1.704113 -2.005422
H 3.335675 -0.785706 -2.056505
H 1.536546 0.442192 1.547001
H 4.642635 1.033170 -0.609048
H 3.864988 1.562250 0.930612
H 4.684172 -0.049882 0.841177
