29

C 3.883718 0.054106 0.565506
C 2.392530 0.004333 0.375009
C 1.639539 1.029459 0.823253
C 0.133977 1.052311 0.724017
C -0.408440 0.108132 -0.376719
C 0.279856 -1.266350 -0.231142
C 1.793860 -1.130552 -0.428029
C -1.978426 0.017798 -0.425365
C -2.593065 -0.604762 0.854916
C -2.588969 1.419806 -0.616112
O -2.359612 -0.734916 -1.556748
H 4.375993 -0.820292 0.089650
H 4.293350 0.978878 0.106461
H 4.123397 0.047037 1.649767
H 2.115203 1.838447 1.371742
H -0.170436 2.097941 0.511185
H -0.267473 0.767172 1.717337
H -0.085592 0.530854 -1.356405
H -0.097895 -1.984694 -0.987536
H 0.088916 -1.689427 0.778790
H 2.277191 -2.088429 -0.137744
H 2.009639 -0.951978 -1.503747
H -2.195270 -1.622795 1.042838
H -2.402370 0.024114 1.748489
H -3.694256 -0.696890 0.737143
H -3.678046 1.337612 -0.822914
H -2.467033 2.046351 0.292599
H -2.115957 1.938005 -1.477780
H -2.304329 -1.701270 -1.338359
