      -----------------------------------------------------------      
     |                   =====================                   |     
     |                           x T B                           |     
     |                   =====================                   |     
     |                         S. Grimme                         |     
     |          Mulliken Center for Theoretical Chemistry        |     
     |                    University of Bonn                     |     
      -----------------------------------------------------------      

   * xtb version 6.7.1pre (5071a88) compiled by 'Marcel@Raven' on 2024-07-23

   xtb is free software: you can redistribute it and/or modify it under
   the terms of the GNU Lesser General Public License as published by
   the Free Software Foundation, either version 3 of the License, or
   (at your option) any later version.
   
   xtb is distributed in the hope that it will be useful,
   but WITHOUT ANY WARRANTY; without even the implied warranty of
   MERCHANTABILITY or FITNESS FOR A PARTICULAR PURPOSE.  See the
   GNU Lesser General Public License for more details.
   
   Cite this work as:
   * C. Bannwarth, E. Caldeweyher, S. Ehlert, A. Hansen, P. Pracht,
     J. Seibert, S. Spicher, S. Grimme, WIREs Comput. Mol. Sci., 2020, 11,
     e01493. DOI: 10.1002/wcms.1493
   
   for GFN2-xTB:
   * C. Bannwarth, S. Ehlert and S. Grimme., J. Chem. Theory Comput., 2019,
     15, 1652-1671. DOI: 10.1021/acs.jctc.8b01176
   for GFN1-xTB:
   * S. Grimme, C. Bannwarth, P. Shushkov, J. Chem. Theory Comput., 2017,
     13, 1989-2009. DOI: 10.1021/acs.jctc.7b00118
   for GFN0-xTB:
   * P. Pracht, E. Caldeweyher, S. Ehlert, S. Grimme, ChemRxiv, 2019, preprint.
     DOI: 10.26434/chemrxiv.8326202.v1
   for GFN-FF:
   * S. Spicher and S. Grimme, Angew. Chem. Int. Ed., 2020, 59, 15665-15673.
     DOI: 10.1002/anie.202004239
   
   for ALPB and GBSA implicit solvation:
   * S. Ehlert, M. Stahn, S. Spicher, S. Grimme, J. Chem. Theory Comput.,
     2021, 17, 4250-4261. DOI: 10.1021/acs.jctc.1c00471
   
   for ddCOSMO and CPCM-X implicit solvation:
   * M. Stahn, S. Ehlert, S. Grimme, J. Phys. Chem. A,
     2023, XX, XXXX-XXXX. DOI: 10.1021/acs.jpca.3c04382
   
   for DFT-D4:
   * E. Caldeweyher, C. Bannwarth and S. Grimme, J. Chem. Phys., 2017,
     147, 034112. DOI: 10.1063/1.4993215
   * E. Caldeweyher, S. Ehlert, A. Hansen, H. Neugebauer, S. Spicher,
     C. Bannwarth and S. Grimme, J. Chem. Phys., 2019, 150, 154122.
     DOI: 10.1063/1.5090222
   * E. Caldeweyher, J.-M. Mewes, S. Ehlert and S. Grimme, Phys. Chem. Chem. Phys.
     2020, 22, 8499-8512. DOI: 10.1039/D0CP00502A
   
   for sTDA-xTB:
   * S. Grimme and C. Bannwarth, J. Chem. Phys., 2016, 145, 054103.
     DOI: 10.1063/1.4959605
   
   in the mass-spec context:
   * V. Asgeirsson, C. Bauer and S. Grimme, Chem. Sci., 2017, 8, 4879.
     DOI: 10.1039/c7sc00601b
   * J. Koopman and S. Grimme, ACS Omega 2019, 4, 12, 15120-15133.
     DOI: 10.1021/acsomega.9b02011
   
   for metadynamics refer to:
   * S. Grimme, J. Chem. Theory Comput., 2019, 155, 2847-2862
     DOI: 10.1021/acs.jctc.9b00143
   
   for SPH calculations refer to:
   * S. Spicher and S. Grimme, J. Chem. Theory Comput., 2021, 17, 1701-1714
     DOI: 10.1021/acs.jctc.0c01306
   
   for ONIOM refer to:
   * C. Plett, A. Katbashev, S. Ehlert, S. Grimme, M. Bursch,
     Phys. Chem. Chem. Phys., 2023, 25, 17860-17868. DOI: 10.1039/D3CP02178E
   
   for DIPRO refer to:
   * J. Kohn, N. Gildemeister, S. Grimme, D. Fazzi, A. Hansen,
     J. Chem. Phys., 2023, just accepted.
   
   for PTB refer to:
   * S. Grimme, M. Mueller, A. Hansen, J. Chem. Phys., 2023, 158, 124111.
     DOI: 10.1063/5.0137838
   
   with help from (in alphabetical order)
   P. Atkinson, C. Bannwarth, F. Bohle, G. Brandenburg, E. Caldeweyher
   M. Checinski, S. Dohm, S. Ehlert, S. Ehrlich, I. Gerasimov, C. Hölzer
   A. Katbashev, J. Kohn, J. Koopman, C. Lavigne, S. Lehtola, F. März, M. Müller,
   F. Musil, H. Neugebauer, J. Pisarek, C. Plett, P. Pracht, F. Pultar,
   J. Seibert, P. Shushkov, S. Spicher, M. Stahn, M. Steiner, T. Strunk,
   J. Stückrath, T. Rose, and J. Unsleber
   
 * started run on 2025/06/23 at 11:32:09.336     
$$$$$$$$$$$$$$$$$$$$$$$$$$$$$$$$$$$$$$$$$$$$$$$$$$$$$$$$$$$$$$$$$$$$$$$$
 CONSTRAINTS & SCANS: DEBUG SECTION
$$$$$$$$$$$$$$$$$$$$$$$$$$$$$$$$$$$$$$$$$$$$$$$$$$$$$$$$$$$$$$$$$$$$$$$$
   ID    Z sym.   atoms
    1    6 C      1-3, 7-9
    2    7 N      4, 6
    3    8 O      5
    4    1 H      10-13
$$$$$$$$$$$$$$$$$$$$$$$$$$$$$$$$$$$$$$$$$$$$$$$$$$$$$$$$$$$$$$$$$$$$$$$$

           -------------------------------------------------
          |                Calculation Setup                |
           -------------------------------------------------

          program call               : C:\Users\nkapa\Downloads\xtb-6.7.1pre-windows-x86_64\xtb-6.7.1\bin\xtb.EXE dft_tmp\279.xyz --gfn2 --parallel 8 --verbose
          coordinate file            : dft_tmp\279.xyz
          xtbhome directory          : C:\Users\nkapa\AppData\Roaming\SPB_Data
          path for xtb               : C:\Users\nkapa\Downloads\xtb-6.7.1pre-windows-x86_64\xtb-6.7.1\share\xtb
          xcontrol input file        : dft_tmp\279.xyz
          omp threads                :                     8


           -------------------------------------------------
          |                 G F N 2 - x T B                 |
           -------------------------------------------------

        Reference                      10.1021/acs.jctc.8b01176
      * Hamiltonian:
        H0-scaling (s, p, d)           1.850000    2.230000    2.230000
        zeta-weighting                 0.500000
      * Dispersion:
        s8                             2.700000
        a1                             0.520000
        a2                             5.000000
        s9                             5.000000
      * Repulsion:
        kExp                           1.500000    1.000000
        rExp                           1.000000
      * Coulomb:
        alpha                          2.000000
        third order                    shell-resolved
        anisotropic                    true
        a3                             3.000000
        a5                             4.000000
        cn-shift                       1.200000
        cn-exp                         4.000000
        max-rad                        5.000000


          ...................................................
          :                      SETUP                      :
          :.................................................:
          :  # basis functions                  40          :
          :  # atomic orbitals                  40          :
          :  # shells                           22          :
          :  # electrons                        44          :
          :  max. iterations                   250          :
          :  Hamiltonian                  GFN2-xTB          :
          :  restarted?                      false          :
          :  GBSA solvation                  false          :
          :  PC potential                    false          :
          :  electronic temp.          300.0000000     K    :
          :  accuracy                    1.0000000          :
          :  -> integral cutoff          0.2500000E+02      :
          :  -> integral neglect         0.1000000E-07      :
          :  -> SCF convergence          0.1000000E-05 Eh   :
          :  -> wf. convergence          0.1000000E-03 e    :
          :  Broyden damping             0.4000000          :
          :  net charge                          0          :
          :  unpaired electrons                  0          :
          ...................................................

 iter      E             dE          RMSdq      gap      omega  full diag
   1    -24.9799083 -0.249799E+02  0.502E+00    2.65       0.0  T
   2    -25.0184834 -0.385751E-01  0.314E+00    2.63       1.0  T
   3    -25.0192977 -0.814263E-03  0.138E+00    2.67       1.0  T
   4    -25.0251301 -0.583242E-02  0.332E-01    2.58       1.0  T
   5    -25.0256429 -0.512782E-03  0.177E-01    2.58       1.0  T
   6    -25.0259031 -0.260238E-03  0.729E-02    2.59       1.0  T
   7    -25.0259220 -0.188707E-04  0.274E-02    2.59       1.0  T
   8    -25.0259223 -0.336874E-06  0.730E-03    2.59       3.8  T
   9    -25.0259225 -0.138047E-06  0.176E-03    2.59      15.8  T
  10    -25.0259225 -0.901274E-09  0.218E-04    2.59     127.0  T
  11    -25.0259225 -0.341050E-09  0.918E-05    2.59     302.2  T

   *** convergence criteria satisfied after 11 iterations ***

         #    Occupation            Energy/Eh            Energy/eV
      -------------------------------------------------------------
         1        2.0000           -0.7975165             -21.7015
       ...           ...                  ...                  ...
        16        2.0000           -0.4758692             -12.9491
        17        2.0000           -0.4695375             -12.7768
        18        2.0000           -0.4691303             -12.7657
        19        2.0000           -0.4480267             -12.1914
        20        2.0000           -0.4316017             -11.7445
        21        2.0000           -0.4261484             -11.5961
        22        2.0000           -0.4117784             -11.2051 (HOMO)
        23                         -0.3167036              -8.6179 (LUMO)
        24                         -0.2346341              -6.3847
        25                         -0.2312693              -6.2932
        26                         -0.1043159              -2.8386
        27                          0.0087436               0.2379
       ...                                ...                  ...
        40                          0.6819783              18.5576
      -------------------------------------------------------------
                  HL-Gap            0.0950748 Eh            2.5871 eV
             Fermi-level           -0.3642410 Eh           -9.9115 eV

 SCC (total)                   0 d,  0 h,  0 min,  0.011 sec
 SCC setup                      ...        0 min,  0.000 sec (  0.000%)
 Dispersion                     ...        0 min,  0.001 sec (  9.090%)
 classical contributions        ...        0 min,  0.000 sec (  0.000%)
 integral evaluation            ...        0 min,  0.000 sec (  0.000%)
 iterations                     ...        0 min,  0.008 sec ( 72.729%)
 molecular gradient             ...        0 min,  0.002 sec ( 18.181%)
 printout                       ...        0 min,  0.000 sec (  0.000%)

         :::::::::::::::::::::::::::::::::::::::::::::::::::::
         ::                     SUMMARY                     ::
         :::::::::::::::::::::::::::::::::::::::::::::::::::::
         :: total energy             -24.693036883281 Eh    ::
         :: gradient norm              0.124656123851 Eh/a0 ::
         :: HOMO-LUMO gap              2.587116165893 eV    ::
         ::.................................................::
         :: HOMO orbital eigv.       -11.205060830181 eV    ::
         :: LUMO orbital eigv.        -8.617944664287 eV    ::
         ::.................................................::
         :: SCC energy               -25.025906622855 Eh    ::
         :: -> isotropic ES            0.006541229651 Eh    ::
         :: -> anisotropic ES          0.007718860185 Eh    ::
         :: -> anisotropic XC          0.021570042458 Eh    ::
         :: -> dispersion             -0.011226209063 Eh    ::
         :: repulsion energy           0.332869739574 Eh    ::
         :: add. restraining           0.000000000000 Eh    ::
         :: total charge               0.000000000000 e     ::
         ::.................................................::
         :: atomisation energy         4.554683396567 Eh    ::
         :::::::::::::::::::::::::::::::::::::::::::::::::::::

           -------------------------------------------------
          |                Property Printout                |
           -------------------------------------------------

    * Orbital Energies and Occupations

         #    Occupation            Energy/Eh            Energy/eV
      -------------------------------------------------------------
         1        2.0000           -0.7975165             -21.7015
       ...           ...                  ...                  ...
        10        2.0000           -0.5646357             -15.3645
        11        2.0000           -0.5574385             -15.1687
        12        2.0000           -0.5328432             -14.4994
        13        2.0000           -0.5106627             -13.8958
        14        2.0000           -0.5093659             -13.8606
        15        2.0000           -0.5054339             -13.7536
        16        2.0000           -0.4758692             -12.9491
        17        2.0000           -0.4695375             -12.7768
        18        2.0000           -0.4691303             -12.7657
        19        2.0000           -0.4480267             -12.1914
        20        2.0000           -0.4316017             -11.7445
        21        2.0000           -0.4261484             -11.5961
        22        2.0000           -0.4117784             -11.2051 (HOMO)
        23                         -0.3167036              -8.6179 (LUMO)
        24                         -0.2346341              -6.3847
        25                         -0.2312693              -6.2932
        26                         -0.1043159              -2.8386
        27                          0.0087436               0.2379
        28                          0.0514626               1.4004
        29                          0.1081019               2.9416
        30                          0.1098462               2.9891
        31                          0.1541552               4.1948
        32                          0.1674773               4.5573
        33                          0.2052694               5.5857
       ...                                ...                  ...
        40                          0.6819783              18.5576
      -------------------------------------------------------------
                  HL-Gap            0.0950748 Eh            2.5871 eV
             Fermi-level           -0.3642410 Eh           -9.9115 eV

     #   Z          covCN         q      C6AA      α(0)
     1   6 C        2.912    -0.025    28.634     8.775
     2   6 C        2.911    -0.041    29.025     8.834
     3   6 C        3.053     0.079    26.178     8.391
     4   7 N        1.960    -0.131    24.593     7.354
     5   8 O        1.965     0.026    14.128     5.076
     6   7 N        1.960    -0.131    24.593     7.354
     7   6 C        3.053     0.079    26.178     8.391
     8   6 C        2.911    -0.041    29.025     8.834
     9   6 C        2.912    -0.025    28.634     8.775
    10   1 H        0.925     0.049     2.327     2.385
    11   1 H        0.925     0.056     2.252     2.347
    12   1 H        0.925     0.056     2.252     2.347
    13   1 H        0.925     0.049     2.327     2.385

 Mol. C6AA /au·bohr⁶  :       2637.881095
 Mol. C8AA /au·bohr⁸  :      64865.760816
 Mol. α(0) /au        :         81.248414


Wiberg/Mayer (AO) data.
largest (>0.10) Wiberg bond orders for each atom

 ---------------------------------------------------------------------------
     #   Z sym  total        # sym  WBO       # sym  WBO       # sym  WBO
 ---------------------------------------------------------------------------
     1   6 C    3.989 --     2 C    1.558     9 C    1.324    10 H    0.971
     2   6 C    3.989 --     1 C    1.558     3 C    1.251    11 H    0.969
                             8 C    0.149
     3   6 C    3.981 --     4 N    1.363     2 C    1.251     7 C    1.222
     4   7 N    2.982 --     3 C    1.363     5 O    1.202     6 N    0.313
     5   8 O    2.594 --     6 N    1.202     4 N    1.202
     6   7 N    2.982 --     7 C    1.363     5 O    1.202     4 N    0.313
     7   6 C    3.981 --     6 N    1.363     8 C    1.251     3 C    1.222
     8   6 C    3.989 --     9 C    1.558     7 C    1.251    12 H    0.969
                             2 C    0.149
     9   6 C    3.989 --     8 C    1.558     1 C    1.324    13 H    0.971
    10   1 H    0.997 --     1 C    0.971
    11   1 H    0.997 --     2 C    0.969
    12   1 H    0.997 --     8 C    0.969
    13   1 H    0.997 --     9 C    0.971
 ---------------------------------------------------------------------------

Topologies differ in total number of bonds
Writing topology from bond orders to xtbtopo.mol

molecular dipole:
                 x           y           z       tot (Debye)
 q only:       -0.983       0.009      -0.068
   full:       -1.382       0.013      -0.095       3.521
molecular quadrupole (traceless):
                xx          xy          yy          xz          yz          zz
 q only:       -2.182       0.053       2.183      -0.152      -0.197      -0.001
  q+dip:       -2.918       0.065       2.641      -0.222      -0.212       0.277
   full:       -4.341       0.040       1.311      -0.507       0.164       3.030


           -------------------------------------------------
          | TOTAL ENERGY              -24.693036883281 Eh   |
          | GRADIENT NORM               0.124656123851 Eh/α |
          | HOMO-LUMO GAP               2.587116165893 eV   |
           -------------------------------------------------
########################################################################
[WARNING] Runtime exception occurred
-2- restart_readRestart: Dimension missmatch in restart file.
-1- restart_readRestart: Number of electron missmatch in restart file.
########################################################################

------------------------------------------------------------------------
 unit  open   action     filename
  129 false : read       dft_tmp\279.xyz
  129 false : read       dft_tmp\279.xyz
  129 false : read       dft_tmp\279.xyz
  129 false : read       C:\Users\nkapa\Downloads\xtb-6.7.1pre-windows-x86_64\xtb-6.7.1\share\xtb\param_gfn2-xtb.txt
  129 false : read       xtbrestart
  129 false : replaced   charges
  129 false : replaced   wbo
  129 false : replaced   xtbtopo.mol
  129 false : replaced   xtbrestart

------------------------------------------------------------------------
 * finished run on 2025/06/23 at 11:32:09.395     
------------------------------------------------------------------------
 total:
 * wall-time:     0 d,  0 h,  0 min,  0.058 sec
 *  cpu-time:     0 d,  0 h,  0 min,  0.375 sec
 * ratio c/w:     6.466 speedup
 SCF:
 * wall-time:     0 d,  0 h,  0 min,  0.011 sec
 *  cpu-time:     0 d,  0 h,  0 min,  0.125 sec
 * ratio c/w:    11.364 speedup

normal termination of xtb
