34

C 2.677985 0.116401 0.631241
C 1.912857 0.112475 -0.686540
N 0.499860 -0.170670 -0.451450
C -0.078506 -1.386221 -0.374627
C -1.406477 -1.212175 -0.040790
N -1.640273 0.109395 0.082049
C -0.463484 0.722192 -0.150124
C -2.876435 0.737555 0.529263
C 2.482844 0.478717 0.361045
F 2.308611 0.544996 -1.007409
F 2.400666 1.750716 0.894557
F 3.728561 -0.052606 0.635997
S 1.223089 -0.552484 1.085811
O 1.258128 -1.914363 0.448087
O 1.508315 -0.698138 2.553763
N -0.333594 0.199470 0.895210
S -1.150776 -0.429893 -0.501820
O -1.541232 -1.861468 -0.261454
O -0.263002 -0.347083 -1.711826
C -2.619149 0.532618 -0.791672
F -3.284953 0.040806 -1.898281
F -2.270805 1.851164 -1.014439
F -3.446703 0.457549 0.312429
H 2.269269 0.896969 1.307522
H 3.750176 0.332428 0.440175
H 2.593688 -0.875246 1.124407
H 2.021067 1.102536 -1.180491
H 2.343608 -0.657907 -1.362475
H 0.432474 -2.328896 -0.522152
H -2.138299 -1.992086 0.125724
H -0.305200 1.791267 -0.076801
H -2.962845 1.758222 0.099702
H -3.750776 0.138057 0.197768
H -2.878690 0.805705 1.637212
