      -----------------------------------------------------------      
     |                   =====================                   |     
     |                           x T B                           |     
     |                   =====================                   |     
     |                         S. Grimme                         |     
     |          Mulliken Center for Theoretical Chemistry        |     
     |                    University of Bonn                     |     
      -----------------------------------------------------------      

   * xtb version 6.7.1pre (5071a88) compiled by 'Marcel@Raven' on 2024-07-23

   xtb is free software: you can redistribute it and/or modify it under
   the terms of the GNU Lesser General Public License as published by
   the Free Software Foundation, either version 3 of the License, or
   (at your option) any later version.
   
   xtb is distributed in the hope that it will be useful,
   but WITHOUT ANY WARRANTY; without even the implied warranty of
   MERCHANTABILITY or FITNESS FOR A PARTICULAR PURPOSE.  See the
   GNU Lesser General Public License for more details.
   
   Cite this work as:
   * C. Bannwarth, E. Caldeweyher, S. Ehlert, A. Hansen, P. Pracht,
     J. Seibert, S. Spicher, S. Grimme, WIREs Comput. Mol. Sci., 2020, 11,
     e01493. DOI: 10.1002/wcms.1493
   
   for GFN2-xTB:
   * C. Bannwarth, S. Ehlert and S. Grimme., J. Chem. Theory Comput., 2019,
     15, 1652-1671. DOI: 10.1021/acs.jctc.8b01176
   for GFN1-xTB:
   * S. Grimme, C. Bannwarth, P. Shushkov, J. Chem. Theory Comput., 2017,
     13, 1989-2009. DOI: 10.1021/acs.jctc.7b00118
   for GFN0-xTB:
   * P. Pracht, E. Caldeweyher, S. Ehlert, S. Grimme, ChemRxiv, 2019, preprint.
     DOI: 10.26434/chemrxiv.8326202.v1
   for GFN-FF:
   * S. Spicher and S. Grimme, Angew. Chem. Int. Ed., 2020, 59, 15665-15673.
     DOI: 10.1002/anie.202004239
   
   for ALPB and GBSA implicit solvation:
   * S. Ehlert, M. Stahn, S. Spicher, S. Grimme, J. Chem. Theory Comput.,
     2021, 17, 4250-4261. DOI: 10.1021/acs.jctc.1c00471
   
   for ddCOSMO and CPCM-X implicit solvation:
   * M. Stahn, S. Ehlert, S. Grimme, J. Phys. Chem. A,
     2023, XX, XXXX-XXXX. DOI: 10.1021/acs.jpca.3c04382
   
   for DFT-D4:
   * E. Caldeweyher, C. Bannwarth and S. Grimme, J. Chem. Phys., 2017,
     147, 034112. DOI: 10.1063/1.4993215
   * E. Caldeweyher, S. Ehlert, A. Hansen, H. Neugebauer, S. Spicher,
     C. Bannwarth and S. Grimme, J. Chem. Phys., 2019, 150, 154122.
     DOI: 10.1063/1.5090222
   * E. Caldeweyher, J.-M. Mewes, S. Ehlert and S. Grimme, Phys. Chem. Chem. Phys.
     2020, 22, 8499-8512. DOI: 10.1039/D0CP00502A
   
   for sTDA-xTB:
   * S. Grimme and C. Bannwarth, J. Chem. Phys., 2016, 145, 054103.
     DOI: 10.1063/1.4959605
   
   in the mass-spec context:
   * V. Asgeirsson, C. Bauer and S. Grimme, Chem. Sci., 2017, 8, 4879.
     DOI: 10.1039/c7sc00601b
   * J. Koopman and S. Grimme, ACS Omega 2019, 4, 12, 15120-15133.
     DOI: 10.1021/acsomega.9b02011
   
   for metadynamics refer to:
   * S. Grimme, J. Chem. Theory Comput., 2019, 155, 2847-2862
     DOI: 10.1021/acs.jctc.9b00143
   
   for SPH calculations refer to:
   * S. Spicher and S. Grimme, J. Chem. Theory Comput., 2021, 17, 1701-1714
     DOI: 10.1021/acs.jctc.0c01306
   
   for ONIOM refer to:
   * C. Plett, A. Katbashev, S. Ehlert, S. Grimme, M. Bursch,
     Phys. Chem. Chem. Phys., 2023, 25, 17860-17868. DOI: 10.1039/D3CP02178E
   
   for DIPRO refer to:
   * J. Kohn, N. Gildemeister, S. Grimme, D. Fazzi, A. Hansen,
     J. Chem. Phys., 2023, just accepted.
   
   for PTB refer to:
   * S. Grimme, M. Mueller, A. Hansen, J. Chem. Phys., 2023, 158, 124111.
     DOI: 10.1063/5.0137838
   
   with help from (in alphabetical order)
   P. Atkinson, C. Bannwarth, F. Bohle, G. Brandenburg, E. Caldeweyher
   M. Checinski, S. Dohm, S. Ehlert, S. Ehrlich, I. Gerasimov, C. Hölzer
   A. Katbashev, J. Kohn, J. Koopman, C. Lavigne, S. Lehtola, F. März, M. Müller,
   F. Musil, H. Neugebauer, J. Pisarek, C. Plett, P. Pracht, F. Pultar,
   J. Seibert, P. Shushkov, S. Spicher, M. Stahn, M. Steiner, T. Strunk,
   J. Stückrath, T. Rose, and J. Unsleber
   
 * started run on 2025/06/23 at 11:32:11.224     
$$$$$$$$$$$$$$$$$$$$$$$$$$$$$$$$$$$$$$$$$$$$$$$$$$$$$$$$$$$$$$$$$$$$$$$$
 CONSTRAINTS & SCANS: DEBUG SECTION
$$$$$$$$$$$$$$$$$$$$$$$$$$$$$$$$$$$$$$$$$$$$$$$$$$$$$$$$$$$$$$$$$$$$$$$$
   ID    Z sym.   atoms
    1    6 C      1, 3, 5, 7, 9, 10
    2    7 N      2, 4, 6, 8
    3    1 H      11-22
$$$$$$$$$$$$$$$$$$$$$$$$$$$$$$$$$$$$$$$$$$$$$$$$$$$$$$$$$$$$$$$$$$$$$$$$

           -------------------------------------------------
          |                Calculation Setup                |
           -------------------------------------------------

          program call               : C:\Users\nkapa\Downloads\xtb-6.7.1pre-windows-x86_64\xtb-6.7.1\bin\xtb.EXE dft_tmp\292.xyz --gfn2 --parallel 8 --verbose
          coordinate file            : dft_tmp\292.xyz
          xtbhome directory          : C:\Users\nkapa\AppData\Roaming\SPB_Data
          path for xtb               : C:\Users\nkapa\Downloads\xtb-6.7.1pre-windows-x86_64\xtb-6.7.1\share\xtb
          xcontrol input file        : dft_tmp\292.xyz
          omp threads                :                     8


           -------------------------------------------------
          |                 G F N 2 - x T B                 |
           -------------------------------------------------

        Reference                      10.1021/acs.jctc.8b01176
      * Hamiltonian:
        H0-scaling (s, p, d)           1.850000    2.230000    2.230000
        zeta-weighting                 0.500000
      * Dispersion:
        s8                             2.700000
        a1                             0.520000
        a2                             5.000000
        s9                             5.000000
      * Repulsion:
        kExp                           1.500000    1.000000
        rExp                           1.000000
      * Coulomb:
        alpha                          2.000000
        third order                    shell-resolved
        anisotropic                    true
        a3                             3.000000
        a5                             4.000000
        cn-shift                       1.200000
        cn-exp                         4.000000
        max-rad                        5.000000


          ...................................................
          :                      SETUP                      :
          :.................................................:
          :  # basis functions                  52          :
          :  # atomic orbitals                  52          :
          :  # shells                           32          :
          :  # electrons                        56          :
          :  max. iterations                   250          :
          :  Hamiltonian                  GFN2-xTB          :
          :  restarted?                      false          :
          :  GBSA solvation                  false          :
          :  PC potential                    false          :
          :  electronic temp.          300.0000000     K    :
          :  accuracy                    1.0000000          :
          :  -> integral cutoff          0.2500000E+02      :
          :  -> integral neglect         0.1000000E-07      :
          :  -> SCF convergence          0.1000000E-05 Eh   :
          :  -> wf. convergence          0.1000000E-03 e    :
          :  Broyden damping             0.4000000          :
          :  net charge                          0          :
          :  unpaired electrons                  0          :
          ...................................................

 iter      E             dE          RMSdq      gap      omega  full diag
   1    -30.9405462 -0.309405E+02  0.273E+00    9.91       0.0  T
   2    -30.9698114 -0.292653E-01  0.170E+00    9.87       1.0  T
   3    -30.9710269 -0.121550E-02  0.587E-01    9.71       1.0  T
   4    -30.9712037 -0.176788E-03  0.752E-02    9.61       1.0  T
   5    -30.9712043 -0.541409E-06  0.104E-02    9.62       2.0  T
   6    -30.9712046 -0.302882E-06  0.246E-03    9.62       8.7  T
   7    -30.9712046 -0.202275E-08  0.766E-04    9.62      27.8  T
   8    -30.9712046 -0.824834E-09  0.215E-05    9.62     991.8  T

   *** convergence criteria satisfied after 8 iterations ***

         #    Occupation            Energy/Eh            Energy/eV
      -------------------------------------------------------------
         1        2.0000           -0.6758741             -18.3915
       ...           ...                  ...                  ...
        22        2.0000           -0.4563570             -12.4181
        23        2.0000           -0.4563570             -12.4181
        24        2.0000           -0.4563569             -12.4181
        25        2.0000           -0.4402244             -11.9791
        26        2.0000           -0.3608440              -9.8191
        27        2.0000           -0.3608439              -9.8191
        28        2.0000           -0.3608437              -9.8191 (HOMO)
        29                         -0.0074318              -0.2022 (LUMO)
        30                         -0.0074316              -0.2022
        31                         -0.0074304              -0.2022
        32                          0.0404583               1.1009
        33                          0.0520735               1.4170
       ...                                ...                  ...
        52                          0.2285901               6.2203
      -------------------------------------------------------------
                  HL-Gap            0.3534119 Eh            9.6168 eV
             Fermi-level           -0.1841378 Eh           -5.0106 eV

 SCC (total)                   0 d,  0 h,  0 min,  0.017 sec
 SCC setup                      ...        0 min,  0.001 sec (  5.883%)
 Dispersion                     ...        0 min,  0.000 sec (  0.000%)
 classical contributions        ...        0 min,  0.000 sec (  0.000%)
 integral evaluation            ...        0 min,  0.002 sec ( 11.764%)
 iterations                     ...        0 min,  0.011 sec ( 64.706%)
 molecular gradient             ...        0 min,  0.003 sec ( 17.647%)
 printout                       ...        0 min,  0.000 sec (  0.000%)

         :::::::::::::::::::::::::::::::::::::::::::::::::::::
         ::                     SUMMARY                     ::
         :::::::::::::::::::::::::::::::::::::::::::::::::::::
         :: total energy             -30.691139526438 Eh    ::
         :: gradient norm              0.047137755844 Eh/a0 ::
         :: HOMO-LUMO gap              9.616826953002 eV    ::
         ::.................................................::
         :: HOMO orbital eigv.        -9.819057458530 eV    ::
         :: LUMO orbital eigv.        -0.202230505528 eV    ::
         ::.................................................::
         :: SCC energy               -30.971106150680 Eh    ::
         :: -> isotropic ES            0.031248614512 Eh    ::
         :: -> anisotropic ES          0.008807460645 Eh    ::
         :: -> anisotropic XC          0.025356939879 Eh    ::
         :: -> dispersion             -0.021380204534 Eh    ::
         :: repulsion energy           0.279966624243 Eh    ::
         :: add. restraining           0.000000000000 Eh    ::
         :: total charge              -0.000000000000 e     ::
         ::.................................................::
         :: atomisation energy         6.109363892051 Eh    ::
         :::::::::::::::::::::::::::::::::::::::::::::::::::::

           -------------------------------------------------
          |                Property Printout                |
           -------------------------------------------------

    * Orbital Energies and Occupations

         #    Occupation            Energy/Eh            Energy/eV
      -------------------------------------------------------------
         1        2.0000           -0.6758741             -18.3915
       ...           ...                  ...                  ...
        16        2.0000           -0.5338156             -14.5259
        17        2.0000           -0.4771585             -12.9841
        18        2.0000           -0.4771583             -12.9841
        19        2.0000           -0.4757243             -12.9451
        20        2.0000           -0.4757241             -12.9451
        21        2.0000           -0.4757238             -12.9451
        22        2.0000           -0.4563570             -12.4181
        23        2.0000           -0.4563570             -12.4181
        24        2.0000           -0.4563569             -12.4181
        25        2.0000           -0.4402244             -11.9791
        26        2.0000           -0.3608440              -9.8191
        27        2.0000           -0.3608439              -9.8191
        28        2.0000           -0.3608437              -9.8191 (HOMO)
        29                         -0.0074318              -0.2022 (LUMO)
        30                         -0.0074316              -0.2022
        31                         -0.0074304              -0.2022
        32                          0.0404583               1.1009
        33                          0.0520735               1.4170
        34                          0.0520740               1.4170
        35                          0.0520750               1.4170
        36                          0.0563024               1.5321
        37                          0.0563034               1.5321
        38                          0.1024305               2.7873
        39                          0.1024312               2.7873
       ...                                ...                  ...
        52                          0.2285901               6.2203
      -------------------------------------------------------------
                  HL-Gap            0.3534119 Eh            9.6168 eV
             Fermi-level           -0.1841378 Eh           -5.0106 eV

     #   Z          covCN         q      C6AA      α(0)
     1   6 C        3.717     0.093    19.160     6.253
     2   7 N        2.721    -0.232    26.076     7.584
     3   6 C        3.717     0.093    19.160     6.253
     4   7 N        2.721    -0.232    26.076     7.584
     5   6 C        3.717     0.093    19.160     6.253
     6   7 N        2.721    -0.232    26.076     7.584
     7   6 C        3.717     0.093    19.160     6.253
     8   7 N        2.721    -0.232    26.076     7.584
     9   6 C        3.717     0.093    19.160     6.253
    10   6 C        3.717     0.093    19.160     6.253
    11   1 H        0.921     0.031     2.573     2.509
    12   1 H        0.921     0.031     2.573     2.509
    13   1 H        0.921     0.031     2.573     2.509
    14   1 H        0.921     0.031     2.573     2.509
    15   1 H        0.921     0.031     2.573     2.509
    16   1 H        0.921     0.031     2.573     2.509
    17   1 H        0.921     0.031     2.573     2.509
    18   1 H        0.921     0.031     2.573     2.509
    19   1 H        0.921     0.031     2.573     2.509
    20   1 H        0.921     0.031     2.573     2.509
    21   1 H        0.921     0.031     2.573     2.509
    22   1 H        0.921     0.031     2.573     2.509

 Mol. C6AA /au·bohr⁶  :       4335.670449
 Mol. C8AA /au·bohr⁸  :      92262.252544
 Mol. α(0) /au        :         97.956990


Wiberg/Mayer (AO) data.
largest (>0.10) Wiberg bond orders for each atom

 ---------------------------------------------------------------------------
     #   Z sym  total        # sym  WBO       # sym  WBO       # sym  WBO
 ---------------------------------------------------------------------------
     1   6 C    3.977 --     2 N    0.992     6 N    0.992    11 H    0.968
                            12 H    0.968
     2   7 N    3.120 --     1 C    0.992     9 C    0.992     3 C    0.992
     3   6 C    3.977 --     4 N    0.992     2 N    0.992    14 H    0.968
                            13 H    0.968
     4   7 N    3.120 --     3 C    0.992     5 C    0.992    10 C    0.992
     5   6 C    3.977 --     6 N    0.992     4 N    0.992    16 H    0.968
                            15 H    0.968
     6   7 N    3.120 --     5 C    0.992     7 C    0.992     1 C    0.992
     7   6 C    3.977 --     6 N    0.992     8 N    0.992    17 H    0.968
                            18 H    0.968
     8   7 N    3.120 --    10 C    0.992     9 C    0.992     7 C    0.992
     9   6 C    3.977 --     8 N    0.992     2 N    0.992    20 H    0.968
                            19 H    0.968
    10   6 C    3.977 --     8 N    0.992     4 N    0.992    21 H    0.968
                            22 H    0.968
    11   1 H    0.999 --     1 C    0.968
    12   1 H    0.999 --     1 C    0.968
    13   1 H    0.999 --     3 C    0.968
    14   1 H    0.999 --     3 C    0.968
    15   1 H    0.999 --     5 C    0.968
    16   1 H    0.999 --     5 C    0.968
    17   1 H    0.999 --     7 C    0.968
    18   1 H    0.999 --     7 C    0.968
    19   1 H    0.999 --     9 C    0.968
    20   1 H    0.999 --     9 C    0.968
    21   1 H    0.999 --    10 C    0.968
    22   1 H    0.999 --    10 C    0.968
 ---------------------------------------------------------------------------

Topologies differ in total number of bonds
Writing topology from bond orders to xtbtopo.mol

molecular dipole:
                 x           y           z       tot (Debye)
 q only:        0.000      -0.000      -0.000
   full:       -0.000       0.000      -0.000       0.000
molecular quadrupole (traceless):
                xx          xy          yy          xz          yz          zz
 q only:       -0.000      -0.000       0.000      -0.000       0.000      -0.000
  q+dip:       -0.000      -0.000       0.000      -0.000      -0.000       0.000
   full:       -0.000      -0.000       0.000      -0.000      -0.000       0.000


           -------------------------------------------------
          | TOTAL ENERGY              -30.691139526438 Eh   |
          | GRADIENT NORM               0.047137755844 Eh/α |
          | HOMO-LUMO GAP               9.616826953002 eV   |
           -------------------------------------------------
########################################################################
[WARNING] Runtime exception occurred
-2- restart_readRestart: Dimension missmatch in restart file.
-1- restart_readRestart: Number of electron missmatch in restart file.
########################################################################

------------------------------------------------------------------------
 unit  open   action     filename
  129 false : read       dft_tmp\292.xyz
  129 false : read       dft_tmp\292.xyz
  129 false : read       dft_tmp\292.xyz
  129 false : read       C:\Users\nkapa\Downloads\xtb-6.7.1pre-windows-x86_64\xtb-6.7.1\share\xtb\param_gfn2-xtb.txt
  129 false : read       xtbrestart
  129 false : replaced   charges
  129 false : replaced   wbo
  129 false : replaced   xtbtopo.mol
  129 false : replaced   xtbrestart

------------------------------------------------------------------------
 * finished run on 2025/06/23 at 11:32:11.286     
------------------------------------------------------------------------
 total:
 * wall-time:     0 d,  0 h,  0 min,  0.060 sec
 *  cpu-time:     0 d,  0 h,  0 min,  0.391 sec
 * ratio c/w:     6.510 speedup
 SCF:
 * wall-time:     0 d,  0 h,  0 min,  0.018 sec
 *  cpu-time:     0 d,  0 h,  0 min,  0.125 sec
 * ratio c/w:     6.944 speedup

normal termination of xtb
