      -----------------------------------------------------------      
     |                   =====================                   |     
     |                           x T B                           |     
     |                   =====================                   |     
     |                         S. Grimme                         |     
     |          Mulliken Center for Theoretical Chemistry        |     
     |                    University of Bonn                     |     
      -----------------------------------------------------------      

   * xtb version 6.7.1pre (5071a88) compiled by 'Marcel@Raven' on 2024-07-23

   xtb is free software: you can redistribute it and/or modify it under
   the terms of the GNU Lesser General Public License as published by
   the Free Software Foundation, either version 3 of the License, or
   (at your option) any later version.
   
   xtb is distributed in the hope that it will be useful,
   but WITHOUT ANY WARRANTY; without even the implied warranty of
   MERCHANTABILITY or FITNESS FOR A PARTICULAR PURPOSE.  See the
   GNU Lesser General Public License for more details.
   
   Cite this work as:
   * C. Bannwarth, E. Caldeweyher, S. Ehlert, A. Hansen, P. Pracht,
     J. Seibert, S. Spicher, S. Grimme, WIREs Comput. Mol. Sci., 2020, 11,
     e01493. DOI: 10.1002/wcms.1493
   
   for GFN2-xTB:
   * C. Bannwarth, S. Ehlert and S. Grimme., J. Chem. Theory Comput., 2019,
     15, 1652-1671. DOI: 10.1021/acs.jctc.8b01176
   for GFN1-xTB:
   * S. Grimme, C. Bannwarth, P. Shushkov, J. Chem. Theory Comput., 2017,
     13, 1989-2009. DOI: 10.1021/acs.jctc.7b00118
   for GFN0-xTB:
   * P. Pracht, E. Caldeweyher, S. Ehlert, S. Grimme, ChemRxiv, 2019, preprint.
     DOI: 10.26434/chemrxiv.8326202.v1
   for GFN-FF:
   * S. Spicher and S. Grimme, Angew. Chem. Int. Ed., 2020, 59, 15665-15673.
     DOI: 10.1002/anie.202004239
   
   for ALPB and GBSA implicit solvation:
   * S. Ehlert, M. Stahn, S. Spicher, S. Grimme, J. Chem. Theory Comput.,
     2021, 17, 4250-4261. DOI: 10.1021/acs.jctc.1c00471
   
   for ddCOSMO and CPCM-X implicit solvation:
   * M. Stahn, S. Ehlert, S. Grimme, J. Phys. Chem. A,
     2023, XX, XXXX-XXXX. DOI: 10.1021/acs.jpca.3c04382
   
   for DFT-D4:
   * E. Caldeweyher, C. Bannwarth and S. Grimme, J. Chem. Phys., 2017,
     147, 034112. DOI: 10.1063/1.4993215
   * E. Caldeweyher, S. Ehlert, A. Hansen, H. Neugebauer, S. Spicher,
     C. Bannwarth and S. Grimme, J. Chem. Phys., 2019, 150, 154122.
     DOI: 10.1063/1.5090222
   * E. Caldeweyher, J.-M. Mewes, S. Ehlert and S. Grimme, Phys. Chem. Chem. Phys.
     2020, 22, 8499-8512. DOI: 10.1039/D0CP00502A
   
   for sTDA-xTB:
   * S. Grimme and C. Bannwarth, J. Chem. Phys., 2016, 145, 054103.
     DOI: 10.1063/1.4959605
   
   in the mass-spec context:
   * V. Asgeirsson, C. Bauer and S. Grimme, Chem. Sci., 2017, 8, 4879.
     DOI: 10.1039/c7sc00601b
   * J. Koopman and S. Grimme, ACS Omega 2019, 4, 12, 15120-15133.
     DOI: 10.1021/acsomega.9b02011
   
   for metadynamics refer to:
   * S. Grimme, J. Chem. Theory Comput., 2019, 155, 2847-2862
     DOI: 10.1021/acs.jctc.9b00143
   
   for SPH calculations refer to:
   * S. Spicher and S. Grimme, J. Chem. Theory Comput., 2021, 17, 1701-1714
     DOI: 10.1021/acs.jctc.0c01306
   
   for ONIOM refer to:
   * C. Plett, A. Katbashev, S. Ehlert, S. Grimme, M. Bursch,
     Phys. Chem. Chem. Phys., 2023, 25, 17860-17868. DOI: 10.1039/D3CP02178E
   
   for DIPRO refer to:
   * J. Kohn, N. Gildemeister, S. Grimme, D. Fazzi, A. Hansen,
     J. Chem. Phys., 2023, just accepted.
   
   for PTB refer to:
   * S. Grimme, M. Mueller, A. Hansen, J. Chem. Phys., 2023, 158, 124111.
     DOI: 10.1063/5.0137838
   
   with help from (in alphabetical order)
   P. Atkinson, C. Bannwarth, F. Bohle, G. Brandenburg, E. Caldeweyher
   M. Checinski, S. Dohm, S. Ehlert, S. Ehrlich, I. Gerasimov, C. Hölzer
   A. Katbashev, J. Kohn, J. Koopman, C. Lavigne, S. Lehtola, F. März, M. Müller,
   F. Musil, H. Neugebauer, J. Pisarek, C. Plett, P. Pracht, F. Pultar,
   J. Seibert, P. Shushkov, S. Spicher, M. Stahn, M. Steiner, T. Strunk,
   J. Stückrath, T. Rose, and J. Unsleber
   
 * started run on 2025/06/23 at 11:32:12.817     
$$$$$$$$$$$$$$$$$$$$$$$$$$$$$$$$$$$$$$$$$$$$$$$$$$$$$$$$$$$$$$$$$$$$$$$$
 CONSTRAINTS & SCANS: DEBUG SECTION
$$$$$$$$$$$$$$$$$$$$$$$$$$$$$$$$$$$$$$$$$$$$$$$$$$$$$$$$$$$$$$$$$$$$$$$$
   ID    Z sym.   atoms
    1    6 C      1, 2, 4-6
    2    7 N      3, 7
    3    1 H      8-13
$$$$$$$$$$$$$$$$$$$$$$$$$$$$$$$$$$$$$$$$$$$$$$$$$$$$$$$$$$$$$$$$$$$$$$$$

           -------------------------------------------------
          |                Calculation Setup                |
           -------------------------------------------------

          program call               : C:\Users\nkapa\Downloads\xtb-6.7.1pre-windows-x86_64\xtb-6.7.1\bin\xtb.EXE dft_tmp\304.xyz --gfn2 --parallel 8 --verbose
          coordinate file            : dft_tmp\304.xyz
          xtbhome directory          : C:\Users\nkapa\AppData\Roaming\SPB_Data
          path for xtb               : C:\Users\nkapa\Downloads\xtb-6.7.1pre-windows-x86_64\xtb-6.7.1\share\xtb
          xcontrol input file        : dft_tmp\304.xyz
          omp threads                :                     8


           -------------------------------------------------
          |                 G F N 2 - x T B                 |
           -------------------------------------------------

        Reference                      10.1021/acs.jctc.8b01176
      * Hamiltonian:
        H0-scaling (s, p, d)           1.850000    2.230000    2.230000
        zeta-weighting                 0.500000
      * Dispersion:
        s8                             2.700000
        a1                             0.520000
        a2                             5.000000
        s9                             5.000000
      * Repulsion:
        kExp                           1.500000    1.000000
        rExp                           1.000000
      * Coulomb:
        alpha                          2.000000
        third order                    shell-resolved
        anisotropic                    true
        a3                             3.000000
        a5                             4.000000
        cn-shift                       1.200000
        cn-exp                         4.000000
        max-rad                        5.000000


          ...................................................
          :                      SETUP                      :
          :.................................................:
          :  # basis functions                  34          :
          :  # atomic orbitals                  34          :
          :  # shells                           20          :
          :  # electrons                        36          :
          :  max. iterations                   250          :
          :  Hamiltonian                  GFN2-xTB          :
          :  restarted?                      false          :
          :  GBSA solvation                  false          :
          :  PC potential                    false          :
          :  electronic temp.          300.0000000     K    :
          :  accuracy                    1.0000000          :
          :  -> integral cutoff          0.2500000E+02      :
          :  -> integral neglect         0.1000000E-07      :
          :  -> SCF convergence          0.1000000E-05 Eh   :
          :  -> wf. convergence          0.1000000E-03 e    :
          :  Broyden damping             0.4000000          :
          :  net charge                          0          :
          :  unpaired electrons                  0          :
          ...................................................

 iter      E             dE          RMSdq      gap      omega  full diag
   1    -19.8347797 -0.198348E+02  0.415E+00    2.95       0.0  T
   2    -19.8589020 -0.241222E-01  0.264E+00    3.56       1.0  T
   3    -19.8592633 -0.361336E-03  0.111E+00    3.38       1.0  T
   4    -19.8610645 -0.180118E-02  0.314E-01    3.30       1.0  T
   5    -19.8618381 -0.773575E-03  0.109E-01    3.32       1.0  T
   6    -19.8618756 -0.375458E-04  0.395E-02    3.32       1.0  T
   7    -19.8618808 -0.516797E-05  0.226E-02    3.32       1.2  T
   8    -19.8618830 -0.225887E-05  0.484E-03    3.32       5.7  T
   9    -19.8618832 -0.168802E-06  0.213E-03    3.32      13.0  T
  10    -19.8618832  0.154810E-08  0.115E-03    3.32      24.2  T
  11    -19.8618832 -0.944854E-08  0.161E-04    3.32     172.1  T
  12    -19.8618832 -0.221227E-10  0.262E-05    3.32    1057.0  T

   *** convergence criteria satisfied after 12 iterations ***

         #    Occupation            Energy/Eh            Energy/eV
      -------------------------------------------------------------
         1        2.0000           -0.6503706             -17.6975
       ...           ...                  ...                  ...
        12        2.0000           -0.4785967             -13.0233
        13        2.0000           -0.4779604             -13.0060
        14        2.0000           -0.4503539             -12.2548
        15        2.0000           -0.4335035             -11.7962
        16        2.0000           -0.4049708             -11.0198
        17        2.0000           -0.3731443             -10.1538
        18        2.0000           -0.3512925              -9.5592 (HOMO)
        19                         -0.2291724              -6.2361 (LUMO)
        20                         -0.2284068              -6.2153
        21                         -0.1037783              -2.8240
        22                         -0.0474381              -1.2909
        23                          0.1005705               2.7367
       ...                                ...                  ...
        34                          0.5842968              15.8995
      -------------------------------------------------------------
                  HL-Gap            0.1221201 Eh            3.3231 eV
             Fermi-level           -0.2902324 Eh           -7.8976 eV

 SCC (total)                   0 d,  0 h,  0 min,  0.011 sec
 SCC setup                      ...        0 min,  0.000 sec (  0.000%)
 Dispersion                     ...        0 min,  0.000 sec (  0.000%)
 classical contributions        ...        0 min,  0.000 sec (  0.000%)
 integral evaluation            ...        0 min,  0.001 sec (  9.090%)
 iterations                     ...        0 min,  0.008 sec ( 72.729%)
 molecular gradient             ...        0 min,  0.002 sec ( 18.181%)
 printout                       ...        0 min,  0.000 sec (  0.000%)

         :::::::::::::::::::::::::::::::::::::::::::::::::::::
         ::                     SUMMARY                     ::
         :::::::::::::::::::::::::::::::::::::::::::::::::::::
         :: total energy             -19.578668601580 Eh    ::
         :: gradient norm              0.094992077577 Eh/a0 ::
         :: HOMO-LUMO gap              3.323057997279 eV    ::
         ::.................................................::
         :: HOMO orbital eigv.        -9.559155483313 eV    ::
         :: LUMO orbital eigv.        -6.236097486035 eV    ::
         ::.................................................::
         :: SCC energy               -19.861870168159 Eh    ::
         :: -> isotropic ES            0.017711348561 Eh    ::
         :: -> anisotropic ES          0.006031568098 Eh    ::
         :: -> anisotropic XC          0.018248114784 Eh    ::
         :: -> dispersion             -0.009111512246 Eh    ::
         :: repulsion energy           0.283201566579 Eh    ::
         :: add. restraining           0.000000000000 Eh    ::
         :: total charge              -0.000000000000 e     ::
         ::.................................................::
         :: atomisation energy         4.042021855258 Eh    ::
         :::::::::::::::::::::::::::::::::::::::::::::::::::::

           -------------------------------------------------
          |                Property Printout                |
           -------------------------------------------------

    * Orbital Energies and Occupations

         #    Occupation            Energy/Eh            Energy/eV
      -------------------------------------------------------------
         1        2.0000           -0.6503706             -17.6975
       ...           ...                  ...                  ...
         6        2.0000           -0.5712744             -15.5452
         7        2.0000           -0.5372284             -14.6187
         8        2.0000           -0.5348915             -14.5551
         9        2.0000           -0.4986355             -13.5686
        10        2.0000           -0.4934500             -13.4275
        11        2.0000           -0.4921161             -13.3912
        12        2.0000           -0.4785967             -13.0233
        13        2.0000           -0.4779604             -13.0060
        14        2.0000           -0.4503539             -12.2548
        15        2.0000           -0.4335035             -11.7962
        16        2.0000           -0.4049708             -11.0198
        17        2.0000           -0.3731443             -10.1538
        18        2.0000           -0.3512925              -9.5592 (HOMO)
        19                         -0.2291724              -6.2361 (LUMO)
        20                         -0.2284068              -6.2153
        21                         -0.1037783              -2.8240
        22                         -0.0474381              -1.2909
        23                          0.1005705               2.7367
        24                          0.1220428               3.3210
        25                          0.1277461               3.4761
        26                          0.1567412               4.2651
        27                          0.1716530               4.6709
        28                          0.2035247               5.5382
        29                          0.2887104               7.8562
       ...                                ...                  ...
        34                          0.5842968              15.8995
      -------------------------------------------------------------
                  HL-Gap            0.1221201 Eh            3.3231 eV
             Fermi-level           -0.2902324 Eh           -7.8976 eV

     #   Z          covCN         q      C6AA      α(0)
     1   6 C        2.908    -0.064    29.600     8.921
     2   6 C        2.852     0.053    26.804     8.485
     3   7 N        1.834    -0.246    27.258     7.737
     4   6 C        2.852     0.053    26.804     8.485
     5   6 C        2.908    -0.064    29.600     8.921
     6   6 C        2.895     0.094    25.919     8.347
     7   7 N        2.629    -0.271    27.013     7.719
     8   1 H        0.925     0.026     2.643     2.542
     9   1 H        0.925     0.040     2.445     2.445
    10   1 H        0.925     0.040     2.445     2.445
    11   1 H        0.925     0.026     2.643     2.542
    12   1 H        0.858     0.156     1.359     1.827
    13   1 H        0.858     0.156     1.359     1.827

 Mol. C6AA /au·bohr⁶  :       2062.148298
 Mol. C8AA /au·bohr⁸  :      48664.992242
 Mol. α(0) /au        :         72.244024


Wiberg/Mayer (AO) data.
largest (>0.10) Wiberg bond orders for each atom

 ---------------------------------------------------------------------------
     #   Z sym  total        # sym  WBO       # sym  WBO       # sym  WBO
 ---------------------------------------------------------------------------
     1   6 C    3.987 --     2 C    1.461     6 C    1.346     8 H    0.968
     2   6 C    3.982 --     1 C    1.461     3 N    1.414     9 H    0.966
     3   7 N    3.043 --     2 C    1.414     4 C    1.414
     4   6 C    3.982 --     5 C    1.461     3 N    1.414    10 H    0.966
     5   6 C    3.987 --     4 C    1.461     6 C    1.346    11 H    0.968
     6   6 C    3.967 --     1 C    1.346     5 C    1.346     7 N    1.156
     7   7 N    3.274 --     6 C    1.156    12 H    0.958    13 H    0.958
     8   1 H    0.999 --     1 C    0.968
     9   1 H    0.998 --     2 C    0.966
    10   1 H    0.998 --     4 C    0.966
    11   1 H    0.999 --     5 C    0.968
    12   1 H    0.975 --     7 N    0.958
    13   1 H    0.975 --     7 N    0.958
 ---------------------------------------------------------------------------

Topologies differ in total number of bonds
Writing topology from bond orders to xtbtopo.mol

molecular dipole:
                 x           y           z       tot (Debye)
 q only:        1.036      -0.017       0.093
   full:        1.599      -0.025       0.143       4.081
molecular quadrupole (traceless):
                xx          xy          yy          xz          yz          zz
 q only:        0.275       0.170       1.164       0.126      -1.743      -1.440
  q+dip:       -1.088       0.498       4.037       0.092      -4.658      -2.949
   full:       -2.191       0.369       3.448      -0.135      -3.123      -1.258


           -------------------------------------------------
          | TOTAL ENERGY              -19.578668601580 Eh   |
          | GRADIENT NORM               0.094992077577 Eh/α |
          | HOMO-LUMO GAP               3.323057997279 eV   |
           -------------------------------------------------
########################################################################
[WARNING] Runtime exception occurred
-2- restart_readRestart: Dimension missmatch in restart file.
-1- restart_readRestart: Number of electron missmatch in restart file.
########################################################################

------------------------------------------------------------------------
 unit  open   action     filename
  129 false : read       dft_tmp\304.xyz
  129 false : read       dft_tmp\304.xyz
  129 false : read       dft_tmp\304.xyz
  129 false : read       C:\Users\nkapa\Downloads\xtb-6.7.1pre-windows-x86_64\xtb-6.7.1\share\xtb\param_gfn2-xtb.txt
  129 false : read       xtbrestart
  129 false : replaced   charges
  129 false : replaced   wbo
  129 false : replaced   xtbtopo.mol
  129 false : replaced   xtbrestart

------------------------------------------------------------------------
 * finished run on 2025/06/23 at 11:32:12.863     
------------------------------------------------------------------------
 total:
 * wall-time:     0 d,  0 h,  0 min,  0.044 sec
 *  cpu-time:     0 d,  0 h,  0 min,  0.375 sec
 * ratio c/w:     8.523 speedup
 SCF:
 * wall-time:     0 d,  0 h,  0 min,  0.011 sec
 *  cpu-time:     0 d,  0 h,  0 min,  0.125 sec
 * ratio c/w:    11.364 speedup

normal termination of xtb
