20

C 1.514347 0.076438 -0.479782
C 0.776529 1.384540 -0.096650
N -0.612392 1.085728 0.317999
C -1.308665 0.415196 -0.802677
C -0.570847 -0.892907 -1.185807
N 0.612392 -1.085727 -0.317999
C 0.163226 -1.145685 1.090894
C -0.574591 0.162419 1.474026
H 2.416612 -0.053609 0.158056
H 1.871740 0.134022 -1.531820
H 1.315491 1.898598 0.729848
H 0.770632 2.086229 -0.960035
H -1.356584 1.097348 -1.680288
H -2.359451 0.190237 -0.514454
H -1.258330 -1.761977 -1.086243
H -0.255462 -0.854863 -2.252069
H 1.038263 -1.300366 1.760381
H -0.509472 -2.019845 1.236330
H -1.610585 -0.067635 1.808128
H -0.062852 0.651860 2.332164
