17

C -1.838169 0.929464 0.237596
N -0.637932 0.095617 0.416884
C -0.926375 -1.276134 -0.038183
C 0.499525 0.682125 -0.327445
C 1.843761 0.175972 0.207998
O 2.160843 -1.064142 -0.360187
H -2.114119 1.011861 -0.837759
H -1.662613 1.947481 0.647256
H -2.695082 0.500945 0.801198
H -1.107940 -1.311869 -1.135565
H -1.821626 -1.677366 0.484692
H -0.088230 -1.953714 0.220499
H 0.505958 1.788355 -0.197077
H 0.417911 0.488384 -1.421495
H 2.637075 0.909212 -0.060850
H 1.803265 0.093979 1.317552
H 3.023748 -1.340168 0.044887
