37

C -0.379798 2.809345 1.083917
O -1.764687 2.840080 0.814291
C -2.213091 1.566444 0.389071
C -2.304982 1.518566 -1.134060
O -2.741630 0.233239 -1.526500
C -2.568005 0.046857 -2.919149
C -1.188772 -0.543250 -3.217525
O -0.971622 -1.666844 -2.383057
C 0.395557 -1.797138 -2.044661
C 0.705471 -1.012000 -0.769640
O 2.040947 -1.259310 -0.382089
C 2.332513 -0.603355 0.838621
C 2.172551 -1.567413 2.011810
O 2.557011 -0.912736 3.202066
C 2.394664 -1.791919 4.292330
H -0.044687 3.836486 1.335069
H -0.162217 2.159136 1.959969
H 0.201842 2.472109 0.197662
H -1.584494 0.721305 0.760727
H -3.230462 1.404836 0.804985
H -1.303219 1.759875 -1.553482
H -3.034889 2.286198 -1.475443
H -3.336701 -0.677358 -3.263146
H -2.727950 0.980206 -3.509339
H -0.429517 0.262525 -3.090888
H -1.157210 -0.869315 -4.279502
H 0.595458 -2.872181 -1.848564
H 1.079124 -1.494825 -2.873218
H -0.005353 -1.336622 0.023779
H 0.560266 0.072537 -0.970481
H 1.722308 0.315157 1.012964
H 3.392072 -0.271829 0.801306
H 2.818445 -2.456276 1.826305
H 1.107693 -1.888803 2.067268
H 2.707570 -1.267754 5.218539
H 3.037162 -2.694108 4.182899
H 1.328632 -2.086138 4.417166
