      -----------------------------------------------------------      
     |                   =====================                   |     
     |                           x T B                           |     
     |                   =====================                   |     
     |                         S. Grimme                         |     
     |          Mulliken Center for Theoretical Chemistry        |     
     |                    University of Bonn                     |     
      -----------------------------------------------------------      

   * xtb version 6.7.1pre (5071a88) compiled by 'Marcel@Raven' on 2024-07-23

   xtb is free software: you can redistribute it and/or modify it under
   the terms of the GNU Lesser General Public License as published by
   the Free Software Foundation, either version 3 of the License, or
   (at your option) any later version.
   
   xtb is distributed in the hope that it will be useful,
   but WITHOUT ANY WARRANTY; without even the implied warranty of
   MERCHANTABILITY or FITNESS FOR A PARTICULAR PURPOSE.  See the
   GNU Lesser General Public License for more details.
   
   Cite this work as:
   * C. Bannwarth, E. Caldeweyher, S. Ehlert, A. Hansen, P. Pracht,
     J. Seibert, S. Spicher, S. Grimme, WIREs Comput. Mol. Sci., 2020, 11,
     e01493. DOI: 10.1002/wcms.1493
   
   for GFN2-xTB:
   * C. Bannwarth, S. Ehlert and S. Grimme., J. Chem. Theory Comput., 2019,
     15, 1652-1671. DOI: 10.1021/acs.jctc.8b01176
   for GFN1-xTB:
   * S. Grimme, C. Bannwarth, P. Shushkov, J. Chem. Theory Comput., 2017,
     13, 1989-2009. DOI: 10.1021/acs.jctc.7b00118
   for GFN0-xTB:
   * P. Pracht, E. Caldeweyher, S. Ehlert, S. Grimme, ChemRxiv, 2019, preprint.
     DOI: 10.26434/chemrxiv.8326202.v1
   for GFN-FF:
   * S. Spicher and S. Grimme, Angew. Chem. Int. Ed., 2020, 59, 15665-15673.
     DOI: 10.1002/anie.202004239
   
   for ALPB and GBSA implicit solvation:
   * S. Ehlert, M. Stahn, S. Spicher, S. Grimme, J. Chem. Theory Comput.,
     2021, 17, 4250-4261. DOI: 10.1021/acs.jctc.1c00471
   
   for ddCOSMO and CPCM-X implicit solvation:
   * M. Stahn, S. Ehlert, S. Grimme, J. Phys. Chem. A,
     2023, XX, XXXX-XXXX. DOI: 10.1021/acs.jpca.3c04382
   
   for DFT-D4:
   * E. Caldeweyher, C. Bannwarth and S. Grimme, J. Chem. Phys., 2017,
     147, 034112. DOI: 10.1063/1.4993215
   * E. Caldeweyher, S. Ehlert, A. Hansen, H. Neugebauer, S. Spicher,
     C. Bannwarth and S. Grimme, J. Chem. Phys., 2019, 150, 154122.
     DOI: 10.1063/1.5090222
   * E. Caldeweyher, J.-M. Mewes, S. Ehlert and S. Grimme, Phys. Chem. Chem. Phys.
     2020, 22, 8499-8512. DOI: 10.1039/D0CP00502A
   
   for sTDA-xTB:
   * S. Grimme and C. Bannwarth, J. Chem. Phys., 2016, 145, 054103.
     DOI: 10.1063/1.4959605
   
   in the mass-spec context:
   * V. Asgeirsson, C. Bauer and S. Grimme, Chem. Sci., 2017, 8, 4879.
     DOI: 10.1039/c7sc00601b
   * J. Koopman and S. Grimme, ACS Omega 2019, 4, 12, 15120-15133.
     DOI: 10.1021/acsomega.9b02011
   
   for metadynamics refer to:
   * S. Grimme, J. Chem. Theory Comput., 2019, 155, 2847-2862
     DOI: 10.1021/acs.jctc.9b00143
   
   for SPH calculations refer to:
   * S. Spicher and S. Grimme, J. Chem. Theory Comput., 2021, 17, 1701-1714
     DOI: 10.1021/acs.jctc.0c01306
   
   for ONIOM refer to:
   * C. Plett, A. Katbashev, S. Ehlert, S. Grimme, M. Bursch,
     Phys. Chem. Chem. Phys., 2023, 25, 17860-17868. DOI: 10.1039/D3CP02178E
   
   for DIPRO refer to:
   * J. Kohn, N. Gildemeister, S. Grimme, D. Fazzi, A. Hansen,
     J. Chem. Phys., 2023, just accepted.
   
   for PTB refer to:
   * S. Grimme, M. Mueller, A. Hansen, J. Chem. Phys., 2023, 158, 124111.
     DOI: 10.1063/5.0137838
   
   with help from (in alphabetical order)
   P. Atkinson, C. Bannwarth, F. Bohle, G. Brandenburg, E. Caldeweyher
   M. Checinski, S. Dohm, S. Ehlert, S. Ehrlich, I. Gerasimov, C. Hölzer
   A. Katbashev, J. Kohn, J. Koopman, C. Lavigne, S. Lehtola, F. März, M. Müller,
   F. Musil, H. Neugebauer, J. Pisarek, C. Plett, P. Pracht, F. Pultar,
   J. Seibert, P. Shushkov, S. Spicher, M. Stahn, M. Steiner, T. Strunk,
   J. Stückrath, T. Rose, and J. Unsleber
   
 * started run on 2025/06/23 at 11:32:14.231     
$$$$$$$$$$$$$$$$$$$$$$$$$$$$$$$$$$$$$$$$$$$$$$$$$$$$$$$$$$$$$$$$$$$$$$$$
 CONSTRAINTS & SCANS: DEBUG SECTION
$$$$$$$$$$$$$$$$$$$$$$$$$$$$$$$$$$$$$$$$$$$$$$$$$$$$$$$$$$$$$$$$$$$$$$$$
   ID    Z sym.   atoms
    1    6 C      1-4, 7
    2    8 O      5, 6
    3    1 H      8-15
$$$$$$$$$$$$$$$$$$$$$$$$$$$$$$$$$$$$$$$$$$$$$$$$$$$$$$$$$$$$$$$$$$$$$$$$

           -------------------------------------------------
          |                Calculation Setup                |
           -------------------------------------------------

          program call               : C:\Users\nkapa\Downloads\xtb-6.7.1pre-windows-x86_64\xtb-6.7.1\bin\xtb.EXE dft_tmp\316.xyz --gfn2 --parallel 8 --verbose
          coordinate file            : dft_tmp\316.xyz
          xtbhome directory          : C:\Users\nkapa\AppData\Roaming\SPB_Data
          path for xtb               : C:\Users\nkapa\Downloads\xtb-6.7.1pre-windows-x86_64\xtb-6.7.1\share\xtb
          xcontrol input file        : dft_tmp\316.xyz
          omp threads                :                     8


           -------------------------------------------------
          |                 G F N 2 - x T B                 |
           -------------------------------------------------

        Reference                      10.1021/acs.jctc.8b01176
      * Hamiltonian:
        H0-scaling (s, p, d)           1.850000    2.230000    2.230000
        zeta-weighting                 0.500000
      * Dispersion:
        s8                             2.700000
        a1                             0.520000
        a2                             5.000000
        s9                             5.000000
      * Repulsion:
        kExp                           1.500000    1.000000
        rExp                           1.000000
      * Coulomb:
        alpha                          2.000000
        third order                    shell-resolved
        anisotropic                    true
        a3                             3.000000
        a5                             4.000000
        cn-shift                       1.200000
        cn-exp                         4.000000
        max-rad                        5.000000


          ...................................................
          :                      SETUP                      :
          :.................................................:
          :  # basis functions                  36          :
          :  # atomic orbitals                  36          :
          :  # shells                           22          :
          :  # electrons                        40          :
          :  max. iterations                   250          :
          :  Hamiltonian                  GFN2-xTB          :
          :  restarted?                      false          :
          :  GBSA solvation                  false          :
          :  PC potential                    false          :
          :  electronic temp.          300.0000000     K    :
          :  accuracy                    1.0000000          :
          :  -> integral cutoff          0.2500000E+02      :
          :  -> integral neglect         0.1000000E-07      :
          :  -> SCF convergence          0.1000000E-05 Eh   :
          :  -> wf. convergence          0.1000000E-03 e    :
          :  Broyden damping             0.4000000          :
          :  net charge                          0          :
          :  unpaired electrons                  0          :
          ...................................................

 iter      E             dE          RMSdq      gap      omega  full diag
   1    -23.0645334 -0.230645E+02  0.509E+00    3.95       0.0  T
   2    -23.1145208 -0.499875E-01  0.264E+00    3.15       1.0  T
   3    -23.1148811 -0.360305E-03  0.153E+00    3.72       1.0  T
   4    -23.1219487 -0.706759E-02  0.221E-01    3.45       1.0  T
   5    -23.1222683 -0.319548E-03  0.909E-02    3.51       1.0  T
   6    -23.1222583  0.996542E-05  0.539E-02    3.49       1.0  T
   7    -23.1222796 -0.213432E-04  0.213E-02    3.49       1.2  T
   8    -23.1222822 -0.260748E-05  0.550E-03    3.49       4.7  T
   9    -23.1222823 -0.770904E-07  0.190E-03    3.49      13.6  T
  10    -23.1222823 -0.636975E-08  0.927E-04    3.49      27.9  T
  11    -23.1222823 -0.169215E-08  0.164E-04    3.49     157.0  T

   *** convergence criteria satisfied after 11 iterations ***

         #    Occupation            Energy/Eh            Energy/eV
      -------------------------------------------------------------
         1        2.0000           -0.7274714             -19.7955
       ...           ...                  ...                  ...
        14        2.0000           -0.4874798             -13.2650
        15        2.0000           -0.4726943             -12.8627
        16        2.0000           -0.4648398             -12.6489
        17        2.0000           -0.4533275             -12.3357
        18        2.0000           -0.4393099             -11.9542
        19        2.0000           -0.4210500             -11.4574
        20        2.0000           -0.4124075             -11.2222 (HOMO)
        21                         -0.2840178              -7.7285 (LUMO)
        22                         -0.1763719              -4.7993
        23                         -0.0427509              -1.1633
        24                          0.0870885               2.3698
        25                          0.1067508               2.9048
       ...                                ...                  ...
        36                          0.5964163              16.2293
      -------------------------------------------------------------
                  HL-Gap            0.1283896 Eh            3.4937 eV
             Fermi-level           -0.3482127 Eh           -9.4753 eV

 SCC (total)                   0 d,  0 h,  0 min,  0.014 sec
 SCC setup                      ...        0 min,  0.001 sec (  7.144%)
 Dispersion                     ...        0 min,  0.000 sec (  0.000%)
 classical contributions        ...        0 min,  0.000 sec (  0.000%)
 integral evaluation            ...        0 min,  0.000 sec (  0.000%)
 iterations                     ...        0 min,  0.011 sec ( 78.570%)
 molecular gradient             ...        0 min,  0.002 sec ( 14.286%)
 printout                       ...        0 min,  0.000 sec (  0.000%)

         :::::::::::::::::::::::::::::::::::::::::::::::::::::
         ::                     SUMMARY                     ::
         :::::::::::::::::::::::::::::::::::::::::::::::::::::
         :: total energy             -22.879970967862 Eh    ::
         :: gradient norm              0.115299975180 Eh/a0 ::
         :: HOMO-LUMO gap              3.493659639800 eV    ::
         ::.................................................::
         :: HOMO orbital eigv.       -11.222178624707 eV    ::
         :: LUMO orbital eigv.        -7.728518984907 eV    ::
         ::.................................................::
         :: SCC energy               -23.122273580586 Eh    ::
         :: -> isotropic ES            0.047656316981 Eh    ::
         :: -> anisotropic ES          0.001410111599 Eh    ::
         :: -> anisotropic XC          0.007266176913 Eh    ::
         :: -> dispersion             -0.008477582851 Eh    ::
         :: repulsion energy           0.242302612724 Eh    ::
         :: add. restraining           0.000000000000 Eh    ::
         :: total charge              -0.000000000000 e     ::
         ::.................................................::
         :: atomisation energy         4.086125926152 Eh    ::
         :::::::::::::::::::::::::::::::::::::::::::::::::::::

           -------------------------------------------------
          |                Property Printout                |
           -------------------------------------------------

    * Orbital Energies and Occupations

         #    Occupation            Energy/Eh            Energy/eV
      -------------------------------------------------------------
         1        2.0000           -0.7274714             -19.7955
       ...           ...                  ...                  ...
         8        2.0000           -0.5698193             -15.5056
         9        2.0000           -0.5533056             -15.0562
        10        2.0000           -0.5376517             -14.6302
        11        2.0000           -0.5135635             -13.9748
        12        2.0000           -0.5129180             -13.9572
        13        2.0000           -0.4956835             -13.4882
        14        2.0000           -0.4874798             -13.2650
        15        2.0000           -0.4726943             -12.8627
        16        2.0000           -0.4648398             -12.6489
        17        2.0000           -0.4533275             -12.3357
        18        2.0000           -0.4393099             -11.9542
        19        2.0000           -0.4210500             -11.4574
        20        2.0000           -0.4124075             -11.2222 (HOMO)
        21                         -0.2840178              -7.7285 (LUMO)
        22                         -0.1763719              -4.7993
        23                         -0.0427509              -1.1633
        24                          0.0870885               2.3698
        25                          0.1067508               2.9048
        26                          0.1147291               3.1219
        27                          0.1290882               3.5127
        28                          0.1504283               4.0934
        29                          0.1574877               4.2855
        30                          0.1709901               4.6529
        31                          0.1927041               5.2437
       ...                                ...                  ...
        36                          0.5964163              16.2293
      -------------------------------------------------------------
                  HL-Gap            0.1283896 Eh            3.4937 eV
             Fermi-level           -0.3482127 Eh           -9.4753 eV

     #   Z          covCN         q      C6AA      α(0)
     1   6 C        3.749    -0.103    22.538     6.771
     2   6 C        2.936     0.007    27.855     8.656
     3   6 C        2.847    -0.080    29.982     8.974
     4   6 C        2.699     0.333    21.345     7.562
     5   8 O        0.856    -0.418    22.046     6.295
     6   8 O        1.700    -0.271    18.498     5.807
     7   6 C        3.619     0.042    20.314     6.500
     8   1 H        0.922     0.067     2.118     2.276
     9   1 H        0.921     0.052     2.301     2.373
    10   1 H        0.922     0.064     2.155     2.296
    11   1 H        0.925     0.060     2.200     2.320
    12   1 H        0.925     0.064     2.152     2.294
    13   1 H        0.922     0.059     2.209     2.324
    14   1 H        0.922     0.065     2.143     2.289
    15   1 H        0.922     0.059     2.209     2.324

 Mol. C6AA /au·bohr⁶  :       2054.101515
 Mol. C8AA /au·bohr⁸  :      45541.031668
 Mol. α(0) /au        :         69.060773


Wiberg/Mayer (AO) data.
largest (>0.10) Wiberg bond orders for each atom

 ---------------------------------------------------------------------------
     #   Z sym  total        # sym  WBO       # sym  WBO       # sym  WBO
 ---------------------------------------------------------------------------
     1   6 C    3.992 --     2 C    1.026     9 H    0.982     8 H    0.975
                            10 H    0.964
     2   6 C    3.985 --     3 C    1.857     4 C    1.033     1 C    1.026
     3   6 C    3.986 --     2 C    1.857    11 H    0.975    12 H    0.974
     4   6 C    3.917 --     5 O    1.708     6 O    1.091     2 C    1.033
     5   8 O    2.009 --     4 C    1.708     6 O    0.165
     6   8 O    2.284 --     4 C    1.091     7 C    0.969     5 O    0.165
     7   6 C    3.928 --    14 H    0.978    15 H    0.975    13 H    0.975
                             6 O    0.969
     8   1 H    0.995 --     1 C    0.975
     9   1 H    0.997 --     1 C    0.982
    10   1 H    0.996 --     1 C    0.964
    11   1 H    0.996 --     3 C    0.975
    12   1 H    0.996 --     3 C    0.974
    13   1 H    0.996 --     7 C    0.975
    14   1 H    0.995 --     7 C    0.978
    15   1 H    0.996 --     7 C    0.975
 ---------------------------------------------------------------------------

Topologies differ in total number of bonds
Writing topology from bond orders to xtbtopo.mol

molecular dipole:
                 x           y           z       tot (Debye)
 q only:       -0.407      -0.122       0.714
   full:       -0.361      -0.139       0.817       2.298
molecular quadrupole (traceless):
                xx          xy          yy          xz          yz          zz
 q only:        6.555       0.545      -2.714       5.345       0.595      -3.842
  q+dip:        6.773       0.598      -2.261       5.536       0.624      -4.512
   full:        6.407       0.388      -1.105       5.670       0.912      -5.302


           -------------------------------------------------
          | TOTAL ENERGY              -22.879970967862 Eh   |
          | GRADIENT NORM               0.115299975180 Eh/α |
          | HOMO-LUMO GAP               3.493659639800 eV   |
           -------------------------------------------------
########################################################################
[WARNING] Runtime exception occurred
-2- restart_readRestart: Dimension missmatch in restart file.
-1- restart_readRestart: Number of electron missmatch in restart file.
########################################################################

------------------------------------------------------------------------
 unit  open   action     filename
  129 false : read       dft_tmp\316.xyz
  129 false : read       dft_tmp\316.xyz
  129 false : read       dft_tmp\316.xyz
  129 false : read       C:\Users\nkapa\Downloads\xtb-6.7.1pre-windows-x86_64\xtb-6.7.1\share\xtb\param_gfn2-xtb.txt
  129 false : read       xtbrestart
  129 false : replaced   charges
  129 false : replaced   wbo
  129 false : replaced   xtbtopo.mol
  129 false : replaced   xtbrestart

------------------------------------------------------------------------
 * finished run on 2025/06/23 at 11:32:14.286     
------------------------------------------------------------------------
 total:
 * wall-time:     0 d,  0 h,  0 min,  0.054 sec
 *  cpu-time:     0 d,  0 h,  0 min,  0.312 sec
 * ratio c/w:     5.787 speedup
 SCF:
 * wall-time:     0 d,  0 h,  0 min,  0.015 sec
 *  cpu-time:     0 d,  0 h,  0 min,  0.109 sec
 * ratio c/w:     7.292 speedup

normal termination of xtb
