      -----------------------------------------------------------      
     |                   =====================                   |     
     |                           x T B                           |     
     |                   =====================                   |     
     |                         S. Grimme                         |     
     |          Mulliken Center for Theoretical Chemistry        |     
     |                    University of Bonn                     |     
      -----------------------------------------------------------      

   * xtb version 6.7.1pre (5071a88) compiled by 'Marcel@Raven' on 2024-07-23

   xtb is free software: you can redistribute it and/or modify it under
   the terms of the GNU Lesser General Public License as published by
   the Free Software Foundation, either version 3 of the License, or
   (at your option) any later version.
   
   xtb is distributed in the hope that it will be useful,
   but WITHOUT ANY WARRANTY; without even the implied warranty of
   MERCHANTABILITY or FITNESS FOR A PARTICULAR PURPOSE.  See the
   GNU Lesser General Public License for more details.
   
   Cite this work as:
   * C. Bannwarth, E. Caldeweyher, S. Ehlert, A. Hansen, P. Pracht,
     J. Seibert, S. Spicher, S. Grimme, WIREs Comput. Mol. Sci., 2020, 11,
     e01493. DOI: 10.1002/wcms.1493
   
   for GFN2-xTB:
   * C. Bannwarth, S. Ehlert and S. Grimme., J. Chem. Theory Comput., 2019,
     15, 1652-1671. DOI: 10.1021/acs.jctc.8b01176
   for GFN1-xTB:
   * S. Grimme, C. Bannwarth, P. Shushkov, J. Chem. Theory Comput., 2017,
     13, 1989-2009. DOI: 10.1021/acs.jctc.7b00118
   for GFN0-xTB:
   * P. Pracht, E. Caldeweyher, S. Ehlert, S. Grimme, ChemRxiv, 2019, preprint.
     DOI: 10.26434/chemrxiv.8326202.v1
   for GFN-FF:
   * S. Spicher and S. Grimme, Angew. Chem. Int. Ed., 2020, 59, 15665-15673.
     DOI: 10.1002/anie.202004239
   
   for ALPB and GBSA implicit solvation:
   * S. Ehlert, M. Stahn, S. Spicher, S. Grimme, J. Chem. Theory Comput.,
     2021, 17, 4250-4261. DOI: 10.1021/acs.jctc.1c00471
   
   for ddCOSMO and CPCM-X implicit solvation:
   * M. Stahn, S. Ehlert, S. Grimme, J. Phys. Chem. A,
     2023, XX, XXXX-XXXX. DOI: 10.1021/acs.jpca.3c04382
   
   for DFT-D4:
   * E. Caldeweyher, C. Bannwarth and S. Grimme, J. Chem. Phys., 2017,
     147, 034112. DOI: 10.1063/1.4993215
   * E. Caldeweyher, S. Ehlert, A. Hansen, H. Neugebauer, S. Spicher,
     C. Bannwarth and S. Grimme, J. Chem. Phys., 2019, 150, 154122.
     DOI: 10.1063/1.5090222
   * E. Caldeweyher, J.-M. Mewes, S. Ehlert and S. Grimme, Phys. Chem. Chem. Phys.
     2020, 22, 8499-8512. DOI: 10.1039/D0CP00502A
   
   for sTDA-xTB:
   * S. Grimme and C. Bannwarth, J. Chem. Phys., 2016, 145, 054103.
     DOI: 10.1063/1.4959605
   
   in the mass-spec context:
   * V. Asgeirsson, C. Bauer and S. Grimme, Chem. Sci., 2017, 8, 4879.
     DOI: 10.1039/c7sc00601b
   * J. Koopman and S. Grimme, ACS Omega 2019, 4, 12, 15120-15133.
     DOI: 10.1021/acsomega.9b02011
   
   for metadynamics refer to:
   * S. Grimme, J. Chem. Theory Comput., 2019, 155, 2847-2862
     DOI: 10.1021/acs.jctc.9b00143
   
   for SPH calculations refer to:
   * S. Spicher and S. Grimme, J. Chem. Theory Comput., 2021, 17, 1701-1714
     DOI: 10.1021/acs.jctc.0c01306
   
   for ONIOM refer to:
   * C. Plett, A. Katbashev, S. Ehlert, S. Grimme, M. Bursch,
     Phys. Chem. Chem. Phys., 2023, 25, 17860-17868. DOI: 10.1039/D3CP02178E
   
   for DIPRO refer to:
   * J. Kohn, N. Gildemeister, S. Grimme, D. Fazzi, A. Hansen,
     J. Chem. Phys., 2023, just accepted.
   
   for PTB refer to:
   * S. Grimme, M. Mueller, A. Hansen, J. Chem. Phys., 2023, 158, 124111.
     DOI: 10.1063/5.0137838
   
   with help from (in alphabetical order)
   P. Atkinson, C. Bannwarth, F. Bohle, G. Brandenburg, E. Caldeweyher
   M. Checinski, S. Dohm, S. Ehlert, S. Ehrlich, I. Gerasimov, C. Hölzer
   A. Katbashev, J. Kohn, J. Koopman, C. Lavigne, S. Lehtola, F. März, M. Müller,
   F. Musil, H. Neugebauer, J. Pisarek, C. Plett, P. Pracht, F. Pultar,
   J. Seibert, P. Shushkov, S. Spicher, M. Stahn, M. Steiner, T. Strunk,
   J. Stückrath, T. Rose, and J. Unsleber
   
 * started run on 2025/06/23 at 11:32:14.546     
$$$$$$$$$$$$$$$$$$$$$$$$$$$$$$$$$$$$$$$$$$$$$$$$$$$$$$$$$$$$$$$$$$$$$$$$
 CONSTRAINTS & SCANS: DEBUG SECTION
$$$$$$$$$$$$$$$$$$$$$$$$$$$$$$$$$$$$$$$$$$$$$$$$$$$$$$$$$$$$$$$$$$$$$$$$
   ID    Z sym.   atoms
    1    6 C      1-5
    2    8 O      6
    3    1 H      7-18
$$$$$$$$$$$$$$$$$$$$$$$$$$$$$$$$$$$$$$$$$$$$$$$$$$$$$$$$$$$$$$$$$$$$$$$$

           -------------------------------------------------
          |                Calculation Setup                |
           -------------------------------------------------

          program call               : C:\Users\nkapa\Downloads\xtb-6.7.1pre-windows-x86_64\xtb-6.7.1\bin\xtb.EXE dft_tmp\319.xyz --gfn2 --parallel 8 --verbose
          coordinate file            : dft_tmp\319.xyz
          xtbhome directory          : C:\Users\nkapa\AppData\Roaming\SPB_Data
          path for xtb               : C:\Users\nkapa\Downloads\xtb-6.7.1pre-windows-x86_64\xtb-6.7.1\share\xtb
          xcontrol input file        : dft_tmp\319.xyz
          omp threads                :                     8


           -------------------------------------------------
          |                 G F N 2 - x T B                 |
           -------------------------------------------------

        Reference                      10.1021/acs.jctc.8b01176
      * Hamiltonian:
        H0-scaling (s, p, d)           1.850000    2.230000    2.230000
        zeta-weighting                 0.500000
      * Dispersion:
        s8                             2.700000
        a1                             0.520000
        a2                             5.000000
        s9                             5.000000
      * Repulsion:
        kExp                           1.500000    1.000000
        rExp                           1.000000
      * Coulomb:
        alpha                          2.000000
        third order                    shell-resolved
        anisotropic                    true
        a3                             3.000000
        a5                             4.000000
        cn-shift                       1.200000
        cn-exp                         4.000000
        max-rad                        5.000000


          ...................................................
          :                      SETUP                      :
          :.................................................:
          :  # basis functions                  36          :
          :  # atomic orbitals                  36          :
          :  # shells                           24          :
          :  # electrons                        38          :
          :  max. iterations                   250          :
          :  Hamiltonian                  GFN2-xTB          :
          :  restarted?                      false          :
          :  GBSA solvation                  false          :
          :  PC potential                    false          :
          :  electronic temp.          300.0000000     K    :
          :  accuracy                    1.0000000          :
          :  -> integral cutoff          0.2500000E+02      :
          :  -> integral neglect         0.1000000E-07      :
          :  -> SCF convergence          0.1000000E-05 Eh   :
          :  -> wf. convergence          0.1000000E-03 e    :
          :  Broyden damping             0.4000000          :
          :  net charge                          0          :
          :  unpaired electrons                  0          :
          ...................................................

 iter      E             dE          RMSdq      gap      omega  full diag
   1    -21.0645607 -0.210646E+02  0.333E+00   12.18       0.0  T
   2    -21.1113156 -0.467549E-01  0.183E+00   11.91       1.0  T
   3    -21.1120645 -0.748815E-03  0.805E-01   12.02       1.0  T
   4    -21.1122602 -0.195755E-03  0.114E-01   12.05       1.0  T
   5    -21.1122847 -0.245126E-04  0.657E-02   12.06       1.0  T
   6    -21.1122866 -0.185622E-05  0.831E-03   12.07       2.8  T
   7    -21.1122868 -0.183690E-06  0.447E-03   12.07       5.3  T
   8    -21.1122868 -0.155096E-07  0.102E-03   12.07      23.2  T
   9    -21.1122868 -0.198472E-08  0.396E-04   12.07      59.6  T
  10    -21.1122868 -0.326150E-09  0.737E-05   12.07     319.7  T

   *** convergence criteria satisfied after 10 iterations ***

         #    Occupation            Energy/Eh            Energy/eV
      -------------------------------------------------------------
         1        2.0000           -0.6855416             -18.6545
       ...           ...                  ...                  ...
        13        2.0000           -0.4663476             -12.6900
        14        2.0000           -0.4545601             -12.3692
        15        2.0000           -0.4428470             -12.0505
        16        2.0000           -0.4383700             -11.9287
        17        2.0000           -0.4322115             -11.7611
        18        2.0000           -0.4258277             -11.5874
        19        2.0000           -0.4062075             -11.0535 (HOMO)
        20                          0.0373106               1.0153 (LUMO)
        21                          0.0670218               1.8238
        22                          0.0877722               2.3884
        23                          0.1022831               2.7833
        24                          0.1093602               2.9758
       ...                                ...                  ...
        36                          0.2816356               7.6637
      -------------------------------------------------------------
                  HL-Gap            0.4435182 Eh           12.0687 eV
             Fermi-level           -0.1844485 Eh           -5.0191 eV

 SCC (total)                   0 d,  0 h,  0 min,  0.011 sec
 SCC setup                      ...        0 min,  0.001 sec (  9.090%)
 Dispersion                     ...        0 min,  0.000 sec (  0.000%)
 classical contributions        ...        0 min,  0.000 sec (  0.000%)
 integral evaluation            ...        0 min,  0.001 sec (  9.092%)
 iterations                     ...        0 min,  0.007 sec ( 63.637%)
 molecular gradient             ...        0 min,  0.002 sec ( 18.181%)
 printout                       ...        0 min,  0.000 sec (  0.000%)

         :::::::::::::::::::::::::::::::::::::::::::::::::::::
         ::                     SUMMARY                     ::
         :::::::::::::::::::::::::::::::::::::::::::::::::::::
         :: total energy             -20.882194859948 Eh    ::
         :: gradient norm              0.055281317022 Eh/a0 ::
         :: HOMO-LUMO gap             12.068744345804 eV    ::
         ::.................................................::
         :: HOMO orbital eigv.       -11.053470021712 eV    ::
         :: LUMO orbital eigv.         1.015274324093 eV    ::
         ::.................................................::
         :: SCC energy               -21.112292412655 Eh    ::
         :: -> isotropic ES            0.026448979765 Eh    ::
         :: -> anisotropic ES          0.006224804547 Eh    ::
         :: -> anisotropic XC          0.009165264300 Eh    ::
         :: -> dispersion             -0.009090885382 Eh    ::
         :: repulsion energy           0.230097552707 Eh    ::
         :: add. restraining           0.000000000000 Eh    ::
         :: total charge              -0.000000000000 e     ::
         ::.................................................::
         :: atomisation energy         4.280211566194 Eh    ::
         :::::::::::::::::::::::::::::::::::::::::::::::::::::

           -------------------------------------------------
          |                Property Printout                |
           -------------------------------------------------

    * Orbital Energies and Occupations

         #    Occupation            Energy/Eh            Energy/eV
      -------------------------------------------------------------
         1        2.0000           -0.6855416             -18.6545
       ...           ...                  ...                  ...
         7        2.0000           -0.5561493             -15.1336
         8        2.0000           -0.5253662             -14.2959
         9        2.0000           -0.5175536             -14.0834
        10        2.0000           -0.5089704             -13.8498
        11        2.0000           -0.4896447             -13.3239
        12        2.0000           -0.4851246             -13.2009
        13        2.0000           -0.4663476             -12.6900
        14        2.0000           -0.4545601             -12.3692
        15        2.0000           -0.4428470             -12.0505
        16        2.0000           -0.4383700             -11.9287
        17        2.0000           -0.4322115             -11.7611
        18        2.0000           -0.4258277             -11.5874
        19        2.0000           -0.4062075             -11.0535 (HOMO)
        20                          0.0373106               1.0153 (LUMO)
        21                          0.0670218               1.8238
        22                          0.0877722               2.3884
        23                          0.1022831               2.7833
        24                          0.1093602               2.9758
        25                          0.1171829               3.1887
        26                          0.1310700               3.5666
        27                          0.1404573               3.8220
        28                          0.1489753               4.0538
        29                          0.1542290               4.1968
        30                          0.1698857               4.6228
       ...                                ...                  ...
        36                          0.2816356               7.6637
      -------------------------------------------------------------
                  HL-Gap            0.4435182 Eh           12.0687 eV
             Fermi-level           -0.1844485 Eh           -5.0191 eV

     #   Z          covCN         q      C6AA      α(0)
     1   6 C        3.742    -0.098    22.442     6.758
     2   6 C        3.794    -0.050    21.477     6.599
     3   6 C        3.796    -0.059    21.640     6.624
     4   6 C        3.794    -0.069    21.823     6.652
     5   6 C        3.670     0.084    19.414     6.316
     6   8 O        1.652    -0.435    21.550     6.267
     7   1 H        0.922     0.032     2.555     2.500
     8   1 H        0.921     0.032     2.557     2.501
     9   1 H        0.921     0.033     2.545     2.495
    10   1 H        0.921     0.030     2.582     2.513
    11   1 H        0.921     0.028     2.610     2.526
    12   1 H        0.921     0.031     2.570     2.507
    13   1 H        0.921     0.028     2.610     2.526
    14   1 H        0.921     0.044     2.395     2.420
    15   1 H        0.921     0.029     2.601     2.522
    16   1 H        0.921     0.042     2.429     2.437
    17   1 H        0.921     0.010     2.891     2.659
    18   1 H        0.801     0.286     0.765     1.374

 Mol. C6AA /au·bohr⁶  :       2131.869467
 Mol. C8AA /au·bohr⁸  :      43727.950026
 Mol. α(0) /au        :         68.199089


Wiberg/Mayer (AO) data.
largest (>0.10) Wiberg bond orders for each atom

 ---------------------------------------------------------------------------
     #   Z sym  total        # sym  WBO       # sym  WBO       # sym  WBO
 ---------------------------------------------------------------------------
     1   6 C    3.997 --     2 C    1.020     8 H    0.987     9 H    0.987
                             7 H    0.987
     2   6 C    3.997 --     1 C    1.020     3 C    1.008    11 H    0.978
                            10 H    0.978
     3   6 C    3.997 --     2 C    1.008     4 C    1.007    13 H    0.976
                            12 H    0.976
     4   6 C    3.996 --     3 C    1.007     5 C    0.997    15 H    0.976
                            14 H    0.976
     5   6 C    3.957 --     6 O    1.002     4 C    0.997    17 H    0.972
                            16 H    0.971
     6   8 O    1.964 --     5 C    1.002    18 H    0.904
     7   1 H    0.999 --     1 C    0.987
     8   1 H    0.999 --     1 C    0.987
     9   1 H    0.999 --     1 C    0.987
    10   1 H    0.999 --     2 C    0.978
    11   1 H    0.999 --     2 C    0.978
    12   1 H    0.999 --     3 C    0.976
    13   1 H    0.999 --     3 C    0.976
    14   1 H    0.998 --     4 C    0.976
    15   1 H    0.999 --     4 C    0.976
    16   1 H    0.998 --     5 C    0.971
    17   1 H    1.000 --     5 C    0.972
    18   1 H    0.918 --     6 O    0.904
 ---------------------------------------------------------------------------

Topologies differ in total number of bonds
Writing topology from bond orders to xtbtopo.mol

molecular dipole:
                 x           y           z       tot (Debye)
 q only:        0.390      -0.339       0.243
   full:        0.469      -0.484       0.391       1.981
molecular quadrupole (traceless):
                xx          xy          yy          xz          yz          zz
 q only:       -3.545       4.286       2.182      -2.483      -0.151       1.364
  q+dip:       -7.595       5.599       4.404      -4.180      -1.342       3.191
   full:       -6.325       5.816       3.809      -3.950      -0.938       2.516


           -------------------------------------------------
          | TOTAL ENERGY              -20.882194859948 Eh   |
          | GRADIENT NORM               0.055281317022 Eh/α |
          | HOMO-LUMO GAP              12.068744345804 eV   |
           -------------------------------------------------
########################################################################
[WARNING] Runtime exception occurred
-2- restart_readRestart: Dimension missmatch in restart file.
-1- restart_readRestart: Number of electron missmatch in restart file.
########################################################################

------------------------------------------------------------------------
 unit  open   action     filename
  129 false : read       dft_tmp\319.xyz
  129 false : read       dft_tmp\319.xyz
  129 false : read       dft_tmp\319.xyz
  129 false : read       C:\Users\nkapa\Downloads\xtb-6.7.1pre-windows-x86_64\xtb-6.7.1\share\xtb\param_gfn2-xtb.txt
  129 false : read       xtbrestart
  129 false : replaced   charges
  129 false : replaced   wbo
  129 false : replaced   xtbtopo.mol
  129 false : replaced   xtbrestart

------------------------------------------------------------------------
 * finished run on 2025/06/23 at 11:32:14.597     
------------------------------------------------------------------------
 total:
 * wall-time:     0 d,  0 h,  0 min,  0.050 sec
 *  cpu-time:     0 d,  0 h,  0 min,  0.281 sec
 * ratio c/w:     5.625 speedup
 SCF:
 * wall-time:     0 d,  0 h,  0 min,  0.012 sec
 *  cpu-time:     0 d,  0 h,  0 min,  0.125 sec
 * ratio c/w:    10.417 speedup

normal termination of xtb
