20

O -1.318464 -0.086231 1.749270
C -1.242528 0.016845 0.363315
C -0.220428 -0.671571 -0.520443
O -0.684327 -0.363951 -1.838129
C -1.789217 0.464130 -1.750772
O -2.408775 0.929102 -2.742479
C -2.118919 0.686811 -0.368519
O -3.191223 1.435527 0.108816
C 1.219344 -0.133516 -0.349952
O 1.241667 1.269303 -0.437892
C 1.855824 -0.566162 0.978270
O 3.231158 -0.292568 0.969240
H -0.719207 -0.719886 2.261754
H -0.256423 -1.771547 -0.364982
H -3.363277 1.533061 1.102387
H 1.836587 -0.570451 -1.170466
H 1.181731 1.500446 -1.401541
H 1.401981 0.002591 1.815072
H 1.683113 -1.651533 1.162136
H 3.661383 -1.010398 0.434915
