      -----------------------------------------------------------      
     |                   =====================                   |     
     |                           x T B                           |     
     |                   =====================                   |     
     |                         S. Grimme                         |     
     |          Mulliken Center for Theoretical Chemistry        |     
     |                    University of Bonn                     |     
      -----------------------------------------------------------      

   * xtb version 6.7.1pre (5071a88) compiled by 'Marcel@Raven' on 2024-07-23

   xtb is free software: you can redistribute it and/or modify it under
   the terms of the GNU Lesser General Public License as published by
   the Free Software Foundation, either version 3 of the License, or
   (at your option) any later version.
   
   xtb is distributed in the hope that it will be useful,
   but WITHOUT ANY WARRANTY; without even the implied warranty of
   MERCHANTABILITY or FITNESS FOR A PARTICULAR PURPOSE.  See the
   GNU Lesser General Public License for more details.
   
   Cite this work as:
   * C. Bannwarth, E. Caldeweyher, S. Ehlert, A. Hansen, P. Pracht,
     J. Seibert, S. Spicher, S. Grimme, WIREs Comput. Mol. Sci., 2020, 11,
     e01493. DOI: 10.1002/wcms.1493
   
   for GFN2-xTB:
   * C. Bannwarth, S. Ehlert and S. Grimme., J. Chem. Theory Comput., 2019,
     15, 1652-1671. DOI: 10.1021/acs.jctc.8b01176
   for GFN1-xTB:
   * S. Grimme, C. Bannwarth, P. Shushkov, J. Chem. Theory Comput., 2017,
     13, 1989-2009. DOI: 10.1021/acs.jctc.7b00118
   for GFN0-xTB:
   * P. Pracht, E. Caldeweyher, S. Ehlert, S. Grimme, ChemRxiv, 2019, preprint.
     DOI: 10.26434/chemrxiv.8326202.v1
   for GFN-FF:
   * S. Spicher and S. Grimme, Angew. Chem. Int. Ed., 2020, 59, 15665-15673.
     DOI: 10.1002/anie.202004239
   
   for ALPB and GBSA implicit solvation:
   * S. Ehlert, M. Stahn, S. Spicher, S. Grimme, J. Chem. Theory Comput.,
     2021, 17, 4250-4261. DOI: 10.1021/acs.jctc.1c00471
   
   for ddCOSMO and CPCM-X implicit solvation:
   * M. Stahn, S. Ehlert, S. Grimme, J. Phys. Chem. A,
     2023, XX, XXXX-XXXX. DOI: 10.1021/acs.jpca.3c04382
   
   for DFT-D4:
   * E. Caldeweyher, C. Bannwarth and S. Grimme, J. Chem. Phys., 2017,
     147, 034112. DOI: 10.1063/1.4993215
   * E. Caldeweyher, S. Ehlert, A. Hansen, H. Neugebauer, S. Spicher,
     C. Bannwarth and S. Grimme, J. Chem. Phys., 2019, 150, 154122.
     DOI: 10.1063/1.5090222
   * E. Caldeweyher, J.-M. Mewes, S. Ehlert and S. Grimme, Phys. Chem. Chem. Phys.
     2020, 22, 8499-8512. DOI: 10.1039/D0CP00502A
   
   for sTDA-xTB:
   * S. Grimme and C. Bannwarth, J. Chem. Phys., 2016, 145, 054103.
     DOI: 10.1063/1.4959605
   
   in the mass-spec context:
   * V. Asgeirsson, C. Bauer and S. Grimme, Chem. Sci., 2017, 8, 4879.
     DOI: 10.1039/c7sc00601b
   * J. Koopman and S. Grimme, ACS Omega 2019, 4, 12, 15120-15133.
     DOI: 10.1021/acsomega.9b02011
   
   for metadynamics refer to:
   * S. Grimme, J. Chem. Theory Comput., 2019, 155, 2847-2862
     DOI: 10.1021/acs.jctc.9b00143
   
   for SPH calculations refer to:
   * S. Spicher and S. Grimme, J. Chem. Theory Comput., 2021, 17, 1701-1714
     DOI: 10.1021/acs.jctc.0c01306
   
   for ONIOM refer to:
   * C. Plett, A. Katbashev, S. Ehlert, S. Grimme, M. Bursch,
     Phys. Chem. Chem. Phys., 2023, 25, 17860-17868. DOI: 10.1039/D3CP02178E
   
   for DIPRO refer to:
   * J. Kohn, N. Gildemeister, S. Grimme, D. Fazzi, A. Hansen,
     J. Chem. Phys., 2023, just accepted.
   
   for PTB refer to:
   * S. Grimme, M. Mueller, A. Hansen, J. Chem. Phys., 2023, 158, 124111.
     DOI: 10.1063/5.0137838
   
   with help from (in alphabetical order)
   P. Atkinson, C. Bannwarth, F. Bohle, G. Brandenburg, E. Caldeweyher
   M. Checinski, S. Dohm, S. Ehlert, S. Ehrlich, I. Gerasimov, C. Hölzer
   A. Katbashev, J. Kohn, J. Koopman, C. Lavigne, S. Lehtola, F. März, M. Müller,
   F. Musil, H. Neugebauer, J. Pisarek, C. Plett, P. Pracht, F. Pultar,
   J. Seibert, P. Shushkov, S. Spicher, M. Stahn, M. Steiner, T. Strunk,
   J. Stückrath, T. Rose, and J. Unsleber
   
 * started run on 2025/06/23 at 11:32:14.936     
$$$$$$$$$$$$$$$$$$$$$$$$$$$$$$$$$$$$$$$$$$$$$$$$$$$$$$$$$$$$$$$$$$$$$$$$
 CONSTRAINTS & SCANS: DEBUG SECTION
$$$$$$$$$$$$$$$$$$$$$$$$$$$$$$$$$$$$$$$$$$$$$$$$$$$$$$$$$$$$$$$$$$$$$$$$
   ID    Z sym.   atoms
    1    6 C      1
    2    8 O      2
    3    7 N      3
    4    1 H      4-6
$$$$$$$$$$$$$$$$$$$$$$$$$$$$$$$$$$$$$$$$$$$$$$$$$$$$$$$$$$$$$$$$$$$$$$$$

           -------------------------------------------------
          |                Calculation Setup                |
           -------------------------------------------------

          program call               : C:\Users\nkapa\Downloads\xtb-6.7.1pre-windows-x86_64\xtb-6.7.1\bin\xtb.EXE dft_tmp\322.xyz --gfn2 --parallel 8 --verbose
          coordinate file            : dft_tmp\322.xyz
          xtbhome directory          : C:\Users\nkapa\AppData\Roaming\SPB_Data
          path for xtb               : C:\Users\nkapa\Downloads\xtb-6.7.1pre-windows-x86_64\xtb-6.7.1\share\xtb
          xcontrol input file        : dft_tmp\322.xyz
          omp threads                :                     8


           -------------------------------------------------
          |                 G F N 2 - x T B                 |
           -------------------------------------------------

        Reference                      10.1021/acs.jctc.8b01176
      * Hamiltonian:
        H0-scaling (s, p, d)           1.850000    2.230000    2.230000
        zeta-weighting                 0.500000
      * Dispersion:
        s8                             2.700000
        a1                             0.520000
        a2                             5.000000
        s9                             5.000000
      * Repulsion:
        kExp                           1.500000    1.000000
        rExp                           1.000000
      * Coulomb:
        alpha                          2.000000
        third order                    shell-resolved
        anisotropic                    true
        a3                             3.000000
        a5                             4.000000
        cn-shift                       1.200000
        cn-exp                         4.000000
        max-rad                        5.000000


          ...................................................
          :                      SETUP                      :
          :.................................................:
          :  # basis functions                  15          :
          :  # atomic orbitals                  15          :
          :  # shells                            9          :
          :  # electrons                        18          :
          :  max. iterations                   250          :
          :  Hamiltonian                  GFN2-xTB          :
          :  restarted?                      false          :
          :  GBSA solvation                  false          :
          :  PC potential                    false          :
          :  electronic temp.          300.0000000     K    :
          :  accuracy                    1.0000000          :
          :  -> integral cutoff          0.2500000E+02      :
          :  -> integral neglect         0.1000000E-07      :
          :  -> SCF convergence          0.1000000E-05 Eh   :
          :  -> wf. convergence          0.1000000E-03 e    :
          :  Broyden damping             0.4000000          :
          :  net charge                          0          :
          :  unpaired electrons                  0          :
          ...................................................

 iter      E             dE          RMSdq      gap      omega  full diag
   1    -10.6498811 -0.106499E+02  0.551E+00    4.33       0.0  T
   2    -10.7088510 -0.589699E-01  0.271E+00    4.21       1.0  T
   3    -10.7146163 -0.576537E-02  0.163E+00    4.50       1.0  T
   4    -10.7144090  0.207392E-03  0.385E-01    4.34       1.0  T
   5    -10.7150358 -0.626837E-03  0.136E-01    4.41       1.0  T
   6    -10.7150653 -0.294709E-04  0.657E-02    4.43       1.0  T
   7    -10.7150746 -0.930018E-05  0.666E-03    4.43       6.1  T
   8    -10.7150746 -0.274030E-07  0.166E-03    4.43      24.7  T
   9    -10.7150746 -0.375354E-08  0.640E-04    4.43      63.8  T
  10    -10.7150746 -0.157002E-08  0.749E-05    4.43     545.3  T

   *** convergence criteria satisfied after 10 iterations ***

         #    Occupation            Energy/Eh            Energy/eV
      -------------------------------------------------------------
         1        2.0000           -0.6927119             -18.8497
       ...           ...                  ...                  ...
         3        2.0000           -0.6001720             -16.3315
         4        2.0000           -0.5733367             -15.6013
         5        2.0000           -0.5445702             -14.8185
         6        2.0000           -0.5219766             -14.2037
         7        2.0000           -0.5018037             -13.6548
         8        2.0000           -0.4247691             -11.5586
         9        2.0000           -0.4088354             -11.1250 (HOMO)
        10                         -0.2461638              -6.6985 (LUMO)
        11                         -0.0565263              -1.5382
        12                          0.0994644               2.7066
        13                          0.1532568               4.1703
        14                          0.2739221               7.4538
        15                          0.4480640              12.1924
      -------------------------------------------------------------
                  HL-Gap            0.1626715 Eh            4.4265 eV
             Fermi-level           -0.3274996 Eh           -8.9117 eV

 SCC (total)                   0 d,  0 h,  0 min,  0.005 sec
 SCC setup                      ...        0 min,  0.001 sec ( 20.003%)
 Dispersion                     ...        0 min,  0.000 sec (  0.000%)
 classical contributions        ...        0 min,  0.000 sec (  0.000%)
 integral evaluation            ...        0 min,  0.000 sec (  0.000%)
 iterations                     ...        0 min,  0.003 sec ( 59.999%)
 molecular gradient             ...        0 min,  0.001 sec ( 19.998%)
 printout                       ...        0 min,  0.000 sec (  0.000%)

         :::::::::::::::::::::::::::::::::::::::::::::::::::::
         ::                     SUMMARY                     ::
         :::::::::::::::::::::::::::::::::::::::::::::::::::::
         :: total energy             -10.630709420656 Eh    ::
         :: gradient norm              0.125528113699 Eh/a0 ::
         :: HOMO-LUMO gap              4.426517691686 eV    ::
         ::.................................................::
         :: HOMO orbital eigv.       -11.124976255578 eV    ::
         :: LUMO orbital eigv.        -6.698458563891 eV    ::
         ::.................................................::
         :: SCC energy               -10.715074528377 Eh    ::
         :: -> isotropic ES            0.037621030961 Eh    ::
         :: -> anisotropic ES          0.002966833427 Eh    ::
         :: -> anisotropic XC          0.004058927207 Eh    ::
         :: -> dispersion             -0.001628045816 Eh    ::
         :: repulsion energy           0.084365107721 Eh    ::
         :: add. restraining           0.000000000000 Eh    ::
         :: total charge              -0.000000000000 e     ::
         ::.................................................::
         :: atomisation energy         1.530912440642 Eh    ::
         :::::::::::::::::::::::::::::::::::::::::::::::::::::

           -------------------------------------------------
          |                Property Printout                |
           -------------------------------------------------

    * Orbital Energies and Occupations

         #    Occupation            Energy/Eh            Energy/eV
      -------------------------------------------------------------
         1        2.0000           -0.6927119             -18.8497
         2        2.0000           -0.6483470             -17.6424
         3        2.0000           -0.6001720             -16.3315
         4        2.0000           -0.5733367             -15.6013
         5        2.0000           -0.5445702             -14.8185
         6        2.0000           -0.5219766             -14.2037
         7        2.0000           -0.5018037             -13.6548
         8        2.0000           -0.4247691             -11.5586
         9        2.0000           -0.4088354             -11.1250 (HOMO)
        10                         -0.2461638              -6.6985 (LUMO)
        11                         -0.0565263              -1.5382
        12                          0.0994644               2.7066
        13                          0.1532568               4.1703
        14                          0.2739221               7.4538
        15                          0.4480640              12.1924
      -------------------------------------------------------------
                  HL-Gap            0.1626715 Eh            4.4265 eV
             Fermi-level           -0.3274996 Eh           -8.9117 eV

     #   Z          covCN         q      C6AA      α(0)
     1   6 C        2.689     0.238    23.027     7.853
     2   8 O        0.856    -0.400    21.676     6.242
     3   7 N        2.624    -0.253    26.586     7.658
     4   1 H        0.925     0.044     2.395     2.420
     5   1 H        0.858     0.198     1.117     1.656
     6   1 H        0.858     0.173     1.254     1.754

 Mol. C6AA /au·bohr⁶  :        334.155155
 Mol. C8AA /au·bohr⁸  :       6996.807291
 Mol. α(0) /au        :         27.583555


Wiberg/Mayer (AO) data.
largest (>0.10) Wiberg bond orders for each atom

 ---------------------------------------------------------------------------
     #   Z sym  total        # sym  WBO       # sym  WBO       # sym  WBO
 ---------------------------------------------------------------------------
     1   6 C    3.947 --     2 O    1.751     3 N    1.249     4 H    0.945
     2   8 O    2.020 --     1 C    1.751     3 N    0.220
     3   7 N    3.372 --     1 C    1.249     6 H    0.954     5 H    0.941
                             2 O    0.220
     4   1 H    0.998 --     1 C    0.945
     5   1 H    0.961 --     3 N    0.941
     6   1 H    0.970 --     3 N    0.954
 ---------------------------------------------------------------------------

Topologies differ in total number of bonds
Writing topology from bond orders to xtbtopo.mol

molecular dipole:
                 x           y           z       tot (Debye)
 q only:       -1.188       0.423       0.635
   full:       -1.395       0.560       0.806       4.336
molecular quadrupole (traceless):
                xx          xy          yy          xz          yz          zz
 q only:       -0.711       2.340       0.849       2.404       0.027      -0.138
  q+dip:       -0.801       3.441       1.147       3.323       0.707      -0.346
   full:       -1.097       3.176       1.223       3.297       0.066      -0.126


           -------------------------------------------------
          | TOTAL ENERGY              -10.630709420656 Eh   |
          | GRADIENT NORM               0.125528113699 Eh/α |
          | HOMO-LUMO GAP               4.426517691686 eV   |
           -------------------------------------------------
########################################################################
[WARNING] Runtime exception occurred
-2- restart_readRestart: Dimension missmatch in restart file.
-1- restart_readRestart: Number of electron missmatch in restart file.
########################################################################

------------------------------------------------------------------------
 unit  open   action     filename
  129 false : read       dft_tmp\322.xyz
  129 false : read       dft_tmp\322.xyz
  129 false : read       dft_tmp\322.xyz
  129 false : read       C:\Users\nkapa\Downloads\xtb-6.7.1pre-windows-x86_64\xtb-6.7.1\share\xtb\param_gfn2-xtb.txt
  129 false : read       xtbrestart
  129 false : replaced   charges
  129 false : replaced   wbo
  129 false : replaced   xtbtopo.mol
  129 false : replaced   xtbrestart

------------------------------------------------------------------------
 * finished run on 2025/06/23 at 11:32:14.976     
------------------------------------------------------------------------
 total:
 * wall-time:     0 d,  0 h,  0 min,  0.038 sec
 *  cpu-time:     0 d,  0 h,  0 min,  0.250 sec
 * ratio c/w:     6.579 speedup
 SCF:
 * wall-time:     0 d,  0 h,  0 min,  0.005 sec
 *  cpu-time:     0 d,  0 h,  0 min,  0.000 sec
 * ratio c/w:     0.000 speedup

normal termination of xtb
