      -----------------------------------------------------------      
     |                   =====================                   |     
     |                           x T B                           |     
     |                   =====================                   |     
     |                         S. Grimme                         |     
     |          Mulliken Center for Theoretical Chemistry        |     
     |                    University of Bonn                     |     
      -----------------------------------------------------------      

   * xtb version 6.7.1pre (5071a88) compiled by 'Marcel@Raven' on 2024-07-23

   xtb is free software: you can redistribute it and/or modify it under
   the terms of the GNU Lesser General Public License as published by
   the Free Software Foundation, either version 3 of the License, or
   (at your option) any later version.
   
   xtb is distributed in the hope that it will be useful,
   but WITHOUT ANY WARRANTY; without even the implied warranty of
   MERCHANTABILITY or FITNESS FOR A PARTICULAR PURPOSE.  See the
   GNU Lesser General Public License for more details.
   
   Cite this work as:
   * C. Bannwarth, E. Caldeweyher, S. Ehlert, A. Hansen, P. Pracht,
     J. Seibert, S. Spicher, S. Grimme, WIREs Comput. Mol. Sci., 2020, 11,
     e01493. DOI: 10.1002/wcms.1493
   
   for GFN2-xTB:
   * C. Bannwarth, S. Ehlert and S. Grimme., J. Chem. Theory Comput., 2019,
     15, 1652-1671. DOI: 10.1021/acs.jctc.8b01176
   for GFN1-xTB:
   * S. Grimme, C. Bannwarth, P. Shushkov, J. Chem. Theory Comput., 2017,
     13, 1989-2009. DOI: 10.1021/acs.jctc.7b00118
   for GFN0-xTB:
   * P. Pracht, E. Caldeweyher, S. Ehlert, S. Grimme, ChemRxiv, 2019, preprint.
     DOI: 10.26434/chemrxiv.8326202.v1
   for GFN-FF:
   * S. Spicher and S. Grimme, Angew. Chem. Int. Ed., 2020, 59, 15665-15673.
     DOI: 10.1002/anie.202004239
   
   for ALPB and GBSA implicit solvation:
   * S. Ehlert, M. Stahn, S. Spicher, S. Grimme, J. Chem. Theory Comput.,
     2021, 17, 4250-4261. DOI: 10.1021/acs.jctc.1c00471
   
   for ddCOSMO and CPCM-X implicit solvation:
   * M. Stahn, S. Ehlert, S. Grimme, J. Phys. Chem. A,
     2023, XX, XXXX-XXXX. DOI: 10.1021/acs.jpca.3c04382
   
   for DFT-D4:
   * E. Caldeweyher, C. Bannwarth and S. Grimme, J. Chem. Phys., 2017,
     147, 034112. DOI: 10.1063/1.4993215
   * E. Caldeweyher, S. Ehlert, A. Hansen, H. Neugebauer, S. Spicher,
     C. Bannwarth and S. Grimme, J. Chem. Phys., 2019, 150, 154122.
     DOI: 10.1063/1.5090222
   * E. Caldeweyher, J.-M. Mewes, S. Ehlert and S. Grimme, Phys. Chem. Chem. Phys.
     2020, 22, 8499-8512. DOI: 10.1039/D0CP00502A
   
   for sTDA-xTB:
   * S. Grimme and C. Bannwarth, J. Chem. Phys., 2016, 145, 054103.
     DOI: 10.1063/1.4959605
   
   in the mass-spec context:
   * V. Asgeirsson, C. Bauer and S. Grimme, Chem. Sci., 2017, 8, 4879.
     DOI: 10.1039/c7sc00601b
   * J. Koopman and S. Grimme, ACS Omega 2019, 4, 12, 15120-15133.
     DOI: 10.1021/acsomega.9b02011
   
   for metadynamics refer to:
   * S. Grimme, J. Chem. Theory Comput., 2019, 155, 2847-2862
     DOI: 10.1021/acs.jctc.9b00143
   
   for SPH calculations refer to:
   * S. Spicher and S. Grimme, J. Chem. Theory Comput., 2021, 17, 1701-1714
     DOI: 10.1021/acs.jctc.0c01306
   
   for ONIOM refer to:
   * C. Plett, A. Katbashev, S. Ehlert, S. Grimme, M. Bursch,
     Phys. Chem. Chem. Phys., 2023, 25, 17860-17868. DOI: 10.1039/D3CP02178E
   
   for DIPRO refer to:
   * J. Kohn, N. Gildemeister, S. Grimme, D. Fazzi, A. Hansen,
     J. Chem. Phys., 2023, just accepted.
   
   for PTB refer to:
   * S. Grimme, M. Mueller, A. Hansen, J. Chem. Phys., 2023, 158, 124111.
     DOI: 10.1063/5.0137838
   
   with help from (in alphabetical order)
   P. Atkinson, C. Bannwarth, F. Bohle, G. Brandenburg, E. Caldeweyher
   M. Checinski, S. Dohm, S. Ehlert, S. Ehrlich, I. Gerasimov, C. Hölzer
   A. Katbashev, J. Kohn, J. Koopman, C. Lavigne, S. Lehtola, F. März, M. Müller,
   F. Musil, H. Neugebauer, J. Pisarek, C. Plett, P. Pracht, F. Pultar,
   J. Seibert, P. Shushkov, S. Spicher, M. Stahn, M. Steiner, T. Strunk,
   J. Stückrath, T. Rose, and J. Unsleber
   
 * started run on 2025/06/23 at 11:31:33.497     
$$$$$$$$$$$$$$$$$$$$$$$$$$$$$$$$$$$$$$$$$$$$$$$$$$$$$$$$$$$$$$$$$$$$$$$$
 CONSTRAINTS & SCANS: DEBUG SECTION
$$$$$$$$$$$$$$$$$$$$$$$$$$$$$$$$$$$$$$$$$$$$$$$$$$$$$$$$$$$$$$$$$$$$$$$$
   ID    Z sym.   atoms
    1    6 C      1-6, 8-13
    2    7 N      7
    3   16 S      14
    4    8 O      15-17
    5   11 Na     18
    6    1 H      19-28
$$$$$$$$$$$$$$$$$$$$$$$$$$$$$$$$$$$$$$$$$$$$$$$$$$$$$$$$$$$$$$$$$$$$$$$$

           -------------------------------------------------
          |                Calculation Setup                |
           -------------------------------------------------

          program call               : C:\Users\nkapa\Downloads\xtb-6.7.1pre-windows-x86_64\xtb-6.7.1\bin\xtb.EXE dft_tmp\33.xyz --gfn2 --parallel 8 --verbose
          coordinate file            : dft_tmp\33.xyz
          xtbhome directory          : C:\Users\nkapa\AppData\Roaming\SPB_Data
          path for xtb               : C:\Users\nkapa\Downloads\xtb-6.7.1pre-windows-x86_64\xtb-6.7.1\share\xtb
          xcontrol input file        : dft_tmp\33.xyz
          omp threads                :                     8


           -------------------------------------------------
          |                 G F N 2 - x T B                 |
           -------------------------------------------------

        Reference                      10.1021/acs.jctc.8b01176
      * Hamiltonian:
        H0-scaling (s, p, d)           1.850000    2.230000    2.230000
        zeta-weighting                 0.500000
      * Dispersion:
        s8                             2.700000
        a1                             0.520000
        a2                             5.000000
        s9                             5.000000
      * Repulsion:
        kExp                           1.500000    1.000000
        rExp                           1.000000
      * Coulomb:
        alpha                          2.000000
        third order                    shell-resolved
        anisotropic                    true
        a3                             3.000000
        a5                             4.000000
        cn-shift                       1.200000
        cn-exp                         4.000000
        max-rad                        5.000000


          ...................................................
          :                      SETUP                      :
          :.................................................:
          :  # basis functions                  88          :
          :  # atomic orbitals                  87          :
          :  # shells                           47          :
          :  # electrons                        88          :
          :  max. iterations                   250          :
          :  Hamiltonian                  GFN2-xTB          :
          :  restarted?                      false          :
          :  GBSA solvation                  false          :
          :  PC potential                    false          :
          :  electronic temp.          300.0000000     K    :
          :  accuracy                    1.0000000          :
          :  -> integral cutoff          0.2500000E+02      :
          :  -> integral neglect         0.1000000E-07      :
          :  -> SCF convergence          0.1000000E-05 Eh   :
          :  -> wf. convergence          0.1000000E-03 e    :
          :  Broyden damping             0.4000000          :
          :  net charge                          0          :
          :  unpaired electrons                  0          :
          ...................................................

 iter      E             dE          RMSdq      gap      omega  full diag
   1    -49.6863510 -0.496864E+02  0.914E+00    2.91       0.0  T
   2    -49.8807348 -0.194384E+00  0.494E+00    0.63       1.0  T
   3    -49.9377654 -0.570306E-01  0.247E+00    0.87       1.0  T
   4    -49.6655757  0.272190E+00  0.247E+00    0.03       1.0  T
   5    -49.9182274 -0.252652E+00  0.141E+00    1.82       1.0  T
   6    -49.9410472 -0.228198E-01  0.590E-01    1.35       1.0  T
   7    -49.9470003 -0.595315E-02  0.307E-01    0.91       1.0  T
   8    -49.9481802 -0.117985E-02  0.211E-01    0.76       1.0  T
   9    -49.9491782 -0.998046E-03  0.126E-01    0.58       1.0  T
  10    -49.9494095 -0.231227E-03  0.400E-02    0.50       1.0  T
  11    -49.9494262 -0.167018E-04  0.251E-02    0.48       1.0  T
  12    -49.9494279 -0.169825E-05  0.754E-03    0.48       2.5  T
  13    -49.9494285 -0.651314E-06  0.377E-03    0.48       5.0  T
  14    -49.9494287 -0.221219E-06  0.247E-03    0.48       7.7  T
  15    -49.9494289 -0.119278E-06  0.100E-03    0.48      18.9  T
  16    -49.9494289 -0.174857E-07  0.660E-04    0.48      28.6  T
  17    -49.9494289 -0.102413E-07  0.235E-04    0.48      80.4  T

   *** convergence criteria satisfied after 17 iterations ***

         #    Occupation            Energy/Eh            Energy/eV
      -------------------------------------------------------------
         1        2.0000           -0.7415079             -20.1775
       ...           ...                  ...                  ...
        38        2.0000           -0.4251800             -11.5697
        39        2.0000           -0.3712104             -10.1011
        40        2.0000           -0.3670772              -9.9887
        41        2.0000           -0.3540561              -9.6344
        42        2.0000           -0.3449872              -9.3876
        43        2.0000           -0.3317708              -9.0279
        44        1.9998           -0.3253795              -8.8540 (HOMO)
        45        0.0002           -0.3076010              -8.3702 (LUMO)
        46                         -0.2976683              -8.1000
        47                         -0.2971266              -8.0852
        48                         -0.2832396              -7.7073
        49                         -0.1803683              -4.9081
       ...                                ...                  ...
        87                          1.0516214              28.6161
      -------------------------------------------------------------
                  HL-Gap            0.0177785 Eh            0.4838 eV
             Fermi-level           -0.3164897 Eh           -8.6121 eV

 SCC (total)                   0 d,  0 h,  0 min,  0.095 sec
 SCC setup                      ...        0 min,  0.002 sec (  2.105%)
 Dispersion                     ...        0 min,  0.000 sec (  0.000%)
 classical contributions        ...        0 min,  0.000 sec (  0.000%)
 integral evaluation            ...        0 min,  0.018 sec ( 18.947%)
 iterations                     ...        0 min,  0.069 sec ( 72.632%)
 molecular gradient             ...        0 min,  0.006 sec (  6.316%)
 printout                       ...        0 min,  0.000 sec (  0.000%)

         :::::::::::::::::::::::::::::::::::::::::::::::::::::
         ::                     SUMMARY                     ::
         :::::::::::::::::::::::::::::::::::::::::::::::::::::
         :: total energy             -46.980595785100 Eh    ::
         :: gradient norm              5.385491084465 Eh/a0 ::
         :: HOMO-LUMO gap              0.483778704701 eV    ::
         ::.................................................::
         :: HOMO orbital eigv.        -8.854027235561 eV    ::
         :: LUMO orbital eigv.        -8.370248530860 eV    ::
         ::.................................................::
         :: SCC energy               -49.949531168734 Eh    ::
         :: -> isotropic ES            0.232011610423 Eh    ::
         :: -> anisotropic ES         -0.013634879851 Eh    ::
         :: -> anisotropic XC          0.019598864824 Eh    ::
         :: -> dispersion             -0.028893061115 Eh    ::
         :: repulsion energy           2.968935383634 Eh    ::
         :: add. restraining           0.000000000000 Eh    ::
         :: total charge               0.000000000000 e     ::
         ::.................................................::
         :: atomisation energy         6.431420266377 Eh    ::
         :::::::::::::::::::::::::::::::::::::::::::::::::::::

           -------------------------------------------------
          |                Property Printout                |
           -------------------------------------------------

    * Orbital Energies and Occupations

         #    Occupation            Energy/Eh            Energy/eV
      -------------------------------------------------------------
         1        2.0000           -0.7415079             -20.1775
       ...           ...                  ...                  ...
        32        2.0000           -0.4781171             -13.0102
        33        2.0000           -0.4766044             -12.9691
        34        2.0000           -0.4743018             -12.9064
        35        2.0000           -0.4552267             -12.3873
        36        2.0000           -0.4414936             -12.0137
        37        2.0000           -0.4332105             -11.7883
        38        2.0000           -0.4251800             -11.5697
        39        2.0000           -0.3712104             -10.1011
        40        2.0000           -0.3670772              -9.9887
        41        2.0000           -0.3540561              -9.6344
        42        2.0000           -0.3449872              -9.3876
        43        2.0000           -0.3317708              -9.0279
        44        1.9998           -0.3253795              -8.8540 (HOMO)
        45        0.0002           -0.3076010              -8.3702 (LUMO)
        46                         -0.2976683              -8.1000
        47                         -0.2971266              -8.0852
        48                         -0.2832396              -7.7073
        49                         -0.1803683              -4.9081
        50                         -0.1776116              -4.8331
        51                         -0.1677561              -4.5649
        52                         -0.1325769              -3.6076
        53                         -0.1020275              -2.7763
        54                         -0.0624378              -1.6990
        55                         -0.0298088              -0.8111
       ...                                ...                  ...
        87                          1.0516214              28.6161
      -------------------------------------------------------------
                  HL-Gap            0.0177785 Eh            0.4838 eV
             Fermi-level           -0.3164897 Eh           -8.6121 eV

     #   Z          covCN         q      C6AA      α(0)
     1   6 C        2.910    -0.030    28.747     8.792
     2   6 C        2.911    -0.016    28.413     8.741
     3   6 C        3.662    -0.102    22.738     6.841
     4   6 C        3.651     0.011    20.712     6.536
     5   6 C        2.931    -0.039    28.981     8.829
     6   6 C        2.909    -0.022    28.545     8.761
     7   7 N        3.384    -0.264    26.828     7.693
     8   6 C        3.653    -0.156    23.862     7.014
     9   6 C        3.660    -0.048    21.723     6.688
    10   6 C        3.078    -0.016    28.335     8.727
    11   6 C        3.061    -0.061    29.461     8.901
    12   6 C        3.683    -0.013    21.015     6.564
    13   6 C        3.673    -0.259    26.044     7.314
    14  16 S        3.627     1.084   104.271    17.186
    15   8 O        0.859    -0.605    26.248     6.869
    16   8 O        0.859    -0.608    26.319     6.878
    17   8 O        0.854    -0.665    27.766     7.065
    18  11 Na       7.088     1.002    10.510     5.944
    19   1 H        0.925     0.061     2.183     2.310
    20   1 H        0.925     0.063     2.169     2.303
    21   1 H        1.663     0.031     2.562     2.499
    22   1 H        0.925     0.057     2.236     2.338
    23   1 H        0.925     0.063     2.166     2.301
    24   1 H        0.930     0.210     1.048     1.601
    25   1 H        0.925     0.071     2.078     2.254
    26   1 H        0.925     0.100     1.788     2.091
    27   1 H        0.925     0.097     1.816     2.108
    28   1 H        1.731     0.057     2.225     2.329

 Mol. C6AA /au·bohr⁶  :      11813.566830
 Mol. C8AA /au·bohr⁸  :     332117.030720
 Mol. α(0) /au        :        167.476606


Wiberg/Mayer (AO) data.
largest (>0.10) Wiberg bond orders for each atom

 ---------------------------------------------------------------------------
     #   Z sym  total        # sym  WBO       # sym  WBO       # sym  WBO
 ---------------------------------------------------------------------------
     1   6 C    3.982 --     6 C    1.435     2 C    1.430    19 H    0.968
     2   6 C    3.989 --     3 C    1.451     1 C    1.430    20 H    0.965
                             5 C    0.107
     3   6 C    3.981 --     2 C    1.451     4 C    1.371    21 H    0.948
                             6 C    0.107
     4   6 C    3.955 --     5 C    1.381     3 C    1.371     7 N    1.059
     5   6 C    3.983 --     6 C    1.446     4 C    1.381    22 H    0.961
                             2 C    0.107
     6   6 C    3.988 --     5 C    1.446     1 C    1.435    23 H    0.967
                             3 C    0.107
     7   7 N    3.300 --     8 C    1.066     4 C    1.059    24 H    0.918
     8   6 C    3.914 --     9 C    1.370    13 C    1.354     7 N    1.066
     9   6 C    3.981 --    10 C    1.465     8 C    1.370    25 H    0.959
    10   6 C    3.981 --     9 C    1.465    11 C    1.392    26 H    0.957
    11   6 C    3.964 --    12 C    1.402    10 C    1.392    14 S    0.760
                            17 O    0.129
    12   6 C    3.981 --    13 C    1.463    11 C    1.402    27 H    0.957
    13   6 C    3.960 --    12 C    1.463     8 C    1.354    28 H    0.954
    14  16 S    4.994 --    15 O    1.500    16 O    1.496    17 O    1.223
                            11 C    0.760
    15   8 O    1.833 --    14 S    1.500    17 O    0.119    16 O    0.109
    16   8 O    1.829 --    14 S    1.496    17 O    0.118    15 O    0.109
    17   8 O    1.654 --    14 S    1.223    11 C    0.129    15 O    0.119
                            16 O    0.118
    18  11 Na  -0.025
    19   1 H    0.995 --     1 C    0.968
    20   1 H    0.996 --     2 C    0.965
    21   1 H    0.999 --     3 C    0.948
    22   1 H    0.997 --     5 C    0.961
    23   1 H    0.994 --     6 C    0.967
    24   1 H    0.954 --     7 N    0.918
    25   1 H    0.994 --     9 C    0.959
    26   1 H    0.990 --    10 C    0.957
    27   1 H    0.990 --    12 C    0.957
    28   1 H    0.996 --    13 C    0.954
 ---------------------------------------------------------------------------

Topologies differ in total number of bonds
Writing topology from bond orders to xtbtopo.mol

molecular dipole:
                 x           y           z       tot (Debye)
 q only:       -9.711       1.879      -0.836
   full:       -9.824       2.162      -0.933      25.679
molecular quadrupole (traceless):
                xx          xy          yy          xz          yz          zz
 q only:      -81.846      26.052      41.713     -12.071      -3.531      40.133
  q+dip:      -87.886      26.742      47.543     -15.060      -5.549      40.343
   full:      -88.697      27.104      46.267     -13.265      -3.959      42.430


           -------------------------------------------------
          | TOTAL ENERGY              -46.980595785100 Eh   |
          | GRADIENT NORM               5.385491084465 Eh/α |
          | HOMO-LUMO GAP               0.483778704701 eV   |
           -------------------------------------------------
########################################################################
[WARNING] Runtime exception occurred
-2- restart_readRestart: Dimension missmatch in restart file.
-1- restart_readRestart: Number of electron missmatch in restart file.
########################################################################

------------------------------------------------------------------------
 unit  open   action     filename
  129 false : read       dft_tmp\33.xyz
  129 false : read       dft_tmp\33.xyz
  129 false : read       dft_tmp\33.xyz
  129 false : read       C:\Users\nkapa\Downloads\xtb-6.7.1pre-windows-x86_64\xtb-6.7.1\share\xtb\param_gfn2-xtb.txt
  129 false : read       xtbrestart
  129 false : replaced   charges
  129 false : replaced   wbo
  129 false : replaced   xtbtopo.mol
  129 false : replaced   xtbrestart

------------------------------------------------------------------------
 * finished run on 2025/06/23 at 11:31:33.652     
------------------------------------------------------------------------
 total:
 * wall-time:     0 d,  0 h,  0 min,  0.153 sec
 *  cpu-time:     0 d,  0 h,  0 min,  0.953 sec
 * ratio c/w:     6.230 speedup
 SCF:
 * wall-time:     0 d,  0 h,  0 min,  0.096 sec
 *  cpu-time:     0 d,  0 h,  0 min,  0.625 sec
 * ratio c/w:     6.510 speedup

normal termination of xtb
