      -----------------------------------------------------------      
     |                   =====================                   |     
     |                           x T B                           |     
     |                   =====================                   |     
     |                         S. Grimme                         |     
     |          Mulliken Center for Theoretical Chemistry        |     
     |                    University of Bonn                     |     
      -----------------------------------------------------------      

   * xtb version 6.7.1pre (5071a88) compiled by 'Marcel@Raven' on 2024-07-23

   xtb is free software: you can redistribute it and/or modify it under
   the terms of the GNU Lesser General Public License as published by
   the Free Software Foundation, either version 3 of the License, or
   (at your option) any later version.
   
   xtb is distributed in the hope that it will be useful,
   but WITHOUT ANY WARRANTY; without even the implied warranty of
   MERCHANTABILITY or FITNESS FOR A PARTICULAR PURPOSE.  See the
   GNU Lesser General Public License for more details.
   
   Cite this work as:
   * C. Bannwarth, E. Caldeweyher, S. Ehlert, A. Hansen, P. Pracht,
     J. Seibert, S. Spicher, S. Grimme, WIREs Comput. Mol. Sci., 2020, 11,
     e01493. DOI: 10.1002/wcms.1493
   
   for GFN2-xTB:
   * C. Bannwarth, S. Ehlert and S. Grimme., J. Chem. Theory Comput., 2019,
     15, 1652-1671. DOI: 10.1021/acs.jctc.8b01176
   for GFN1-xTB:
   * S. Grimme, C. Bannwarth, P. Shushkov, J. Chem. Theory Comput., 2017,
     13, 1989-2009. DOI: 10.1021/acs.jctc.7b00118
   for GFN0-xTB:
   * P. Pracht, E. Caldeweyher, S. Ehlert, S. Grimme, ChemRxiv, 2019, preprint.
     DOI: 10.26434/chemrxiv.8326202.v1
   for GFN-FF:
   * S. Spicher and S. Grimme, Angew. Chem. Int. Ed., 2020, 59, 15665-15673.
     DOI: 10.1002/anie.202004239
   
   for ALPB and GBSA implicit solvation:
   * S. Ehlert, M. Stahn, S. Spicher, S. Grimme, J. Chem. Theory Comput.,
     2021, 17, 4250-4261. DOI: 10.1021/acs.jctc.1c00471
   
   for ddCOSMO and CPCM-X implicit solvation:
   * M. Stahn, S. Ehlert, S. Grimme, J. Phys. Chem. A,
     2023, XX, XXXX-XXXX. DOI: 10.1021/acs.jpca.3c04382
   
   for DFT-D4:
   * E. Caldeweyher, C. Bannwarth and S. Grimme, J. Chem. Phys., 2017,
     147, 034112. DOI: 10.1063/1.4993215
   * E. Caldeweyher, S. Ehlert, A. Hansen, H. Neugebauer, S. Spicher,
     C. Bannwarth and S. Grimme, J. Chem. Phys., 2019, 150, 154122.
     DOI: 10.1063/1.5090222
   * E. Caldeweyher, J.-M. Mewes, S. Ehlert and S. Grimme, Phys. Chem. Chem. Phys.
     2020, 22, 8499-8512. DOI: 10.1039/D0CP00502A
   
   for sTDA-xTB:
   * S. Grimme and C. Bannwarth, J. Chem. Phys., 2016, 145, 054103.
     DOI: 10.1063/1.4959605
   
   in the mass-spec context:
   * V. Asgeirsson, C. Bauer and S. Grimme, Chem. Sci., 2017, 8, 4879.
     DOI: 10.1039/c7sc00601b
   * J. Koopman and S. Grimme, ACS Omega 2019, 4, 12, 15120-15133.
     DOI: 10.1021/acsomega.9b02011
   
   for metadynamics refer to:
   * S. Grimme, J. Chem. Theory Comput., 2019, 155, 2847-2862
     DOI: 10.1021/acs.jctc.9b00143
   
   for SPH calculations refer to:
   * S. Spicher and S. Grimme, J. Chem. Theory Comput., 2021, 17, 1701-1714
     DOI: 10.1021/acs.jctc.0c01306
   
   for ONIOM refer to:
   * C. Plett, A. Katbashev, S. Ehlert, S. Grimme, M. Bursch,
     Phys. Chem. Chem. Phys., 2023, 25, 17860-17868. DOI: 10.1039/D3CP02178E
   
   for DIPRO refer to:
   * J. Kohn, N. Gildemeister, S. Grimme, D. Fazzi, A. Hansen,
     J. Chem. Phys., 2023, just accepted.
   
   for PTB refer to:
   * S. Grimme, M. Mueller, A. Hansen, J. Chem. Phys., 2023, 158, 124111.
     DOI: 10.1063/5.0137838
   
   with help from (in alphabetical order)
   P. Atkinson, C. Bannwarth, F. Bohle, G. Brandenburg, E. Caldeweyher
   M. Checinski, S. Dohm, S. Ehlert, S. Ehrlich, I. Gerasimov, C. Hölzer
   A. Katbashev, J. Kohn, J. Koopman, C. Lavigne, S. Lehtola, F. März, M. Müller,
   F. Musil, H. Neugebauer, J. Pisarek, C. Plett, P. Pracht, F. Pultar,
   J. Seibert, P. Shushkov, S. Spicher, M. Stahn, M. Steiner, T. Strunk,
   J. Stückrath, T. Rose, and J. Unsleber
   
 * started run on 2025/06/23 at 11:32:15.813     
$$$$$$$$$$$$$$$$$$$$$$$$$$$$$$$$$$$$$$$$$$$$$$$$$$$$$$$$$$$$$$$$$$$$$$$$
 CONSTRAINTS & SCANS: DEBUG SECTION
$$$$$$$$$$$$$$$$$$$$$$$$$$$$$$$$$$$$$$$$$$$$$$$$$$$$$$$$$$$$$$$$$$$$$$$$
   ID    Z sym.   atoms
    1    6 C      1-3, 5, 6
    2    7 N      4
    3    1 H      7-11
$$$$$$$$$$$$$$$$$$$$$$$$$$$$$$$$$$$$$$$$$$$$$$$$$$$$$$$$$$$$$$$$$$$$$$$$

           -------------------------------------------------
          |                Calculation Setup                |
           -------------------------------------------------

          program call               : C:\Users\nkapa\Downloads\xtb-6.7.1pre-windows-x86_64\xtb-6.7.1\bin\xtb.EXE dft_tmp\330.xyz --gfn2 --parallel 8 --verbose
          coordinate file            : dft_tmp\330.xyz
          xtbhome directory          : C:\Users\nkapa\AppData\Roaming\SPB_Data
          path for xtb               : C:\Users\nkapa\Downloads\xtb-6.7.1pre-windows-x86_64\xtb-6.7.1\share\xtb
          xcontrol input file        : dft_tmp\330.xyz
          omp threads                :                     8


           -------------------------------------------------
          |                 G F N 2 - x T B                 |
           -------------------------------------------------

        Reference                      10.1021/acs.jctc.8b01176
      * Hamiltonian:
        H0-scaling (s, p, d)           1.850000    2.230000    2.230000
        zeta-weighting                 0.500000
      * Dispersion:
        s8                             2.700000
        a1                             0.520000
        a2                             5.000000
        s9                             5.000000
      * Repulsion:
        kExp                           1.500000    1.000000
        rExp                           1.000000
      * Coulomb:
        alpha                          2.000000
        third order                    shell-resolved
        anisotropic                    true
        a3                             3.000000
        a5                             4.000000
        cn-shift                       1.200000
        cn-exp                         4.000000
        max-rad                        5.000000


          ...................................................
          :                      SETUP                      :
          :.................................................:
          :  # basis functions                  29          :
          :  # atomic orbitals                  29          :
          :  # shells                           17          :
          :  # electrons                        30          :
          :  max. iterations                   250          :
          :  Hamiltonian                  GFN2-xTB          :
          :  restarted?                      false          :
          :  GBSA solvation                  false          :
          :  PC potential                    false          :
          :  electronic temp.          300.0000000     K    :
          :  accuracy                    1.0000000          :
          :  -> integral cutoff          0.2500000E+02      :
          :  -> integral neglect         0.1000000E-07      :
          :  -> SCF convergence          0.1000000E-05 Eh   :
          :  -> wf. convergence          0.1000000E-03 e    :
          :  Broyden damping             0.4000000          :
          :  net charge                          0          :
          :  unpaired electrons                  0          :
          ...................................................

 iter      E             dE          RMSdq      gap      omega  full diag
   1    -16.3935252 -0.163935E+02  0.516E+00    3.36       0.0  T
   2    -16.4036211 -0.100959E-01  0.316E+00    3.20       1.0  T
   3    -16.4011827  0.243839E-02  0.760E-01    2.99       1.0  T
   4    -16.4043328 -0.315012E-02  0.286E-01    2.91       1.0  T
   5    -16.4049371 -0.604311E-03  0.801E-02    2.95       1.0  T
   6    -16.4049744 -0.372774E-04  0.310E-02    2.94       1.0  T
   7    -16.4049734  0.102307E-05  0.132E-02    2.93       2.3  T
   8    -16.4049748 -0.142117E-05  0.242E-03    2.94      12.5  T
   9    -16.4049748 -0.337019E-08  0.798E-04    2.94      37.8  T
  10    -16.4049748 -0.372637E-08  0.100E-04    2.94     300.3  T

   *** convergence criteria satisfied after 10 iterations ***

         #    Occupation            Energy/Eh            Energy/eV
      -------------------------------------------------------------
         1        2.0000           -0.6562720             -17.8581
       ...           ...                  ...                  ...
         9        2.0000           -0.4980495             -13.5526
        10        2.0000           -0.4902340             -13.3399
        11        2.0000           -0.4686395             -12.7523
        12        2.0000           -0.4435105             -12.0685
        13        2.0000           -0.4321301             -11.7589
        14        2.0000           -0.4179061             -11.3718
        15        2.0000           -0.3639991              -9.9049 (HOMO)
        16                         -0.2560257              -6.9668 (LUMO)
        17                         -0.2410867              -6.5603
        18                         -0.1224508              -3.3321
        19                          0.0863986               2.3510
        20                          0.1167449               3.1768
       ...                                ...                  ...
        29                          0.5829862              15.8639
      -------------------------------------------------------------
                  HL-Gap            0.1079734 Eh            2.9381 eV
             Fermi-level           -0.3100124 Eh           -8.4359 eV

 SCC (total)                   0 d,  0 h,  0 min,  0.007 sec
 SCC setup                      ...        0 min,  0.000 sec (  0.000%)
 Dispersion                     ...        0 min,  0.000 sec (  0.000%)
 classical contributions        ...        0 min,  0.000 sec (  0.000%)
 integral evaluation            ...        0 min,  0.001 sec ( 14.285%)
 iterations                     ...        0 min,  0.005 sec ( 71.431%)
 molecular gradient             ...        0 min,  0.001 sec ( 14.285%)
 printout                       ...        0 min,  0.000 sec (  0.000%)

         :::::::::::::::::::::::::::::::::::::::::::::::::::::
         ::                     SUMMARY                     ::
         :::::::::::::::::::::::::::::::::::::::::::::::::::::
         :: total energy             -16.143783258824 Eh    ::
         :: gradient norm              0.067060115749 Eh/a0 ::
         :: HOMO-LUMO gap              2.938105768995 eV    ::
         ::.................................................::
         :: HOMO orbital eigv.        -9.904920516245 eV    ::
         :: LUMO orbital eigv.        -6.966814747250 eV    ::
         ::.................................................::
         :: SCC energy               -16.404970185995 Eh    ::
         :: -> isotropic ES            0.007495365568 Eh    ::
         :: -> anisotropic ES          0.002532007078 Eh    ::
         :: -> anisotropic XC          0.018253488375 Eh    ::
         :: -> dispersion             -0.007195044291 Eh    ::
         :: repulsion energy           0.261186927171 Eh    ::
         :: add. restraining           0.000000000000 Eh    ::
         :: total charge              -0.000000000000 e     ::
         ::.................................................::
         :: atomisation energy         3.531295696380 Eh    ::
         :::::::::::::::::::::::::::::::::::::::::::::::::::::

           -------------------------------------------------
          |                Property Printout                |
           -------------------------------------------------

    * Orbital Energies and Occupations

         #    Occupation            Energy/Eh            Energy/eV
      -------------------------------------------------------------
         1        2.0000           -0.6562720             -17.8581
       ...           ...                  ...                  ...
         3        2.0000           -0.6241716             -16.9846
         4        2.0000           -0.5853522             -15.9282
         5        2.0000           -0.5817806             -15.8311
         6        2.0000           -0.5377874             -14.6339
         7        2.0000           -0.5132905             -13.9673
         8        2.0000           -0.5068095             -13.7910
         9        2.0000           -0.4980495             -13.5526
        10        2.0000           -0.4902340             -13.3399
        11        2.0000           -0.4686395             -12.7523
        12        2.0000           -0.4435105             -12.0685
        13        2.0000           -0.4321301             -11.7589
        14        2.0000           -0.4179061             -11.3718
        15        2.0000           -0.3639991              -9.9049 (HOMO)
        16                         -0.2560257              -6.9668 (LUMO)
        17                         -0.2410867              -6.5603
        18                         -0.1224508              -3.3321
        19                          0.0863986               2.3510
        20                          0.1167449               3.1768
        21                          0.1437736               3.9123
        22                          0.1555077               4.2316
        23                          0.1681929               4.5768
        24                          0.2868896               7.8067
        25                          0.3730199              10.1504
        26                          0.3799781              10.3397
       ...                                ...                  ...
        29                          0.5829862              15.8639
      -------------------------------------------------------------
                  HL-Gap            0.1079734 Eh            2.9381 eV
             Fermi-level           -0.3100124 Eh           -8.4359 eV

     #   Z          covCN         q      C6AA      α(0)
     1   6 C        2.915    -0.012    28.309     8.725
     2   6 C        2.906    -0.036    28.894     8.814
     3   6 C        2.853     0.056    26.745     8.476
     4   7 N        1.834    -0.221    26.658     7.651
     5   6 C        2.853     0.056    26.745     8.476
     6   6 C        2.906    -0.036    28.894     8.814
     7   1 H        0.925     0.036     2.505     2.475
     8   1 H        0.925     0.034     2.532     2.489
     9   1 H        0.925     0.045     2.385     2.415
    10   1 H        0.925     0.045     2.385     2.415
    11   1 H        0.925     0.034     2.532     2.489

 Mol. C6AA /au·bohr⁶  :       1552.804097
 Mol. C8AA /au·bohr⁸  :      37441.549863
 Mol. α(0) /au        :         63.239012


Wiberg/Mayer (AO) data.
largest (>0.10) Wiberg bond orders for each atom

 ---------------------------------------------------------------------------
     #   Z sym  total        # sym  WBO       # sym  WBO       # sym  WBO
 ---------------------------------------------------------------------------
     1   6 C    3.991 --     2 C    1.440     6 C    1.440     7 H    0.971
                             4 N    0.110
     2   6 C    3.991 --     1 C    1.440     3 C    1.434     8 H    0.970
                             5 C    0.114
     3   6 C    3.980 --     2 C    1.434     4 N    1.433     9 H    0.966
                             6 C    0.114
     4   7 N    3.051 --     3 C    1.433     5 C    1.433     1 C    0.110
     5   6 C    3.980 --     6 C    1.434     4 N    1.433    10 H    0.966
                             2 C    0.114
     6   6 C    3.991 --     1 C    1.440     5 C    1.434    11 H    0.970
                             3 C    0.114
     7   1 H    0.999 --     1 C    0.971
     8   1 H    0.999 --     2 C    0.970
     9   1 H    0.998 --     3 C    0.966
    10   1 H    0.998 --     5 C    0.966
    11   1 H    0.999 --     6 C    0.970
 ---------------------------------------------------------------------------

Topologies differ in total number of bonds
Writing topology from bond orders to xtbtopo.mol

molecular dipole:
                 x           y           z       tot (Debye)
 q only:       -0.034       0.407       0.003
   full:       -0.069       0.832       0.007       2.121
molecular quadrupole (traceless):
                xx          xy          yy          xz          yz          zz
 q only:        2.787       0.361      -1.502      -0.021      -0.004      -1.285
  q+dip:        6.278       0.730      -2.392      -0.054       0.007      -3.886
   full:        4.906       0.736      -3.837      -0.029      -0.026      -1.069


           -------------------------------------------------
          | TOTAL ENERGY              -16.143783258824 Eh   |
          | GRADIENT NORM               0.067060115749 Eh/α |
          | HOMO-LUMO GAP               2.938105768995 eV   |
           -------------------------------------------------
########################################################################
[WARNING] Runtime exception occurred
-2- restart_readRestart: Dimension missmatch in restart file.
-1- restart_readRestart: Number of electron missmatch in restart file.
########################################################################

------------------------------------------------------------------------
 unit  open   action     filename
  129 false : read       dft_tmp\330.xyz
  129 false : read       dft_tmp\330.xyz
  129 false : read       dft_tmp\330.xyz
  129 false : read       C:\Users\nkapa\Downloads\xtb-6.7.1pre-windows-x86_64\xtb-6.7.1\share\xtb\param_gfn2-xtb.txt
  129 false : read       xtbrestart
  129 false : replaced   charges
  129 false : replaced   wbo
  129 false : replaced   xtbtopo.mol
  129 false : replaced   xtbrestart

------------------------------------------------------------------------
 * finished run on 2025/06/23 at 11:32:15.857     
------------------------------------------------------------------------
 total:
 * wall-time:     0 d,  0 h,  0 min,  0.042 sec
 *  cpu-time:     0 d,  0 h,  0 min,  0.250 sec
 * ratio c/w:     5.952 speedup
 SCF:
 * wall-time:     0 d,  0 h,  0 min,  0.008 sec
 *  cpu-time:     0 d,  0 h,  0 min,  0.125 sec
 * ratio c/w:    15.625 speedup

normal termination of xtb
