18

C 2.767363 -0.034108 -0.092514
C 1.380502 -0.455842 -0.569156
C 0.280904 0.250579 0.231929
C -1.110569 -0.175798 -0.250139
C -2.211100 0.527454 0.548579
O -3.473401 0.147664 0.072309
H 3.541591 -0.560595 -0.689471
H 2.904207 -0.297617 0.977965
H 2.903293 1.060885 -0.221361
H 1.279243 -0.204417 -1.647536
H 1.280221 -1.557163 -0.453365
H 0.389847 1.351487 0.114425
H 0.390430 -0.002719 1.309672
H -1.225571 0.078107 -1.326854
H -1.222443 -1.276154 -0.133334
H -2.108358 1.627551 0.432464
H -2.118874 0.285056 1.632193
H -3.647287 -0.764371 0.424205
