      -----------------------------------------------------------      
     |                   =====================                   |     
     |                           x T B                           |     
     |                   =====================                   |     
     |                         S. Grimme                         |     
     |          Mulliken Center for Theoretical Chemistry        |     
     |                    University of Bonn                     |     
      -----------------------------------------------------------      

   * xtb version 6.7.1pre (5071a88) compiled by 'Marcel@Raven' on 2024-07-23

   xtb is free software: you can redistribute it and/or modify it under
   the terms of the GNU Lesser General Public License as published by
   the Free Software Foundation, either version 3 of the License, or
   (at your option) any later version.
   
   xtb is distributed in the hope that it will be useful,
   but WITHOUT ANY WARRANTY; without even the implied warranty of
   MERCHANTABILITY or FITNESS FOR A PARTICULAR PURPOSE.  See the
   GNU Lesser General Public License for more details.
   
   Cite this work as:
   * C. Bannwarth, E. Caldeweyher, S. Ehlert, A. Hansen, P. Pracht,
     J. Seibert, S. Spicher, S. Grimme, WIREs Comput. Mol. Sci., 2020, 11,
     e01493. DOI: 10.1002/wcms.1493
   
   for GFN2-xTB:
   * C. Bannwarth, S. Ehlert and S. Grimme., J. Chem. Theory Comput., 2019,
     15, 1652-1671. DOI: 10.1021/acs.jctc.8b01176
   for GFN1-xTB:
   * S. Grimme, C. Bannwarth, P. Shushkov, J. Chem. Theory Comput., 2017,
     13, 1989-2009. DOI: 10.1021/acs.jctc.7b00118
   for GFN0-xTB:
   * P. Pracht, E. Caldeweyher, S. Ehlert, S. Grimme, ChemRxiv, 2019, preprint.
     DOI: 10.26434/chemrxiv.8326202.v1
   for GFN-FF:
   * S. Spicher and S. Grimme, Angew. Chem. Int. Ed., 2020, 59, 15665-15673.
     DOI: 10.1002/anie.202004239
   
   for ALPB and GBSA implicit solvation:
   * S. Ehlert, M. Stahn, S. Spicher, S. Grimme, J. Chem. Theory Comput.,
     2021, 17, 4250-4261. DOI: 10.1021/acs.jctc.1c00471
   
   for ddCOSMO and CPCM-X implicit solvation:
   * M. Stahn, S. Ehlert, S. Grimme, J. Phys. Chem. A,
     2023, XX, XXXX-XXXX. DOI: 10.1021/acs.jpca.3c04382
   
   for DFT-D4:
   * E. Caldeweyher, C. Bannwarth and S. Grimme, J. Chem. Phys., 2017,
     147, 034112. DOI: 10.1063/1.4993215
   * E. Caldeweyher, S. Ehlert, A. Hansen, H. Neugebauer, S. Spicher,
     C. Bannwarth and S. Grimme, J. Chem. Phys., 2019, 150, 154122.
     DOI: 10.1063/1.5090222
   * E. Caldeweyher, J.-M. Mewes, S. Ehlert and S. Grimme, Phys. Chem. Chem. Phys.
     2020, 22, 8499-8512. DOI: 10.1039/D0CP00502A
   
   for sTDA-xTB:
   * S. Grimme and C. Bannwarth, J. Chem. Phys., 2016, 145, 054103.
     DOI: 10.1063/1.4959605
   
   in the mass-spec context:
   * V. Asgeirsson, C. Bauer and S. Grimme, Chem. Sci., 2017, 8, 4879.
     DOI: 10.1039/c7sc00601b
   * J. Koopman and S. Grimme, ACS Omega 2019, 4, 12, 15120-15133.
     DOI: 10.1021/acsomega.9b02011
   
   for metadynamics refer to:
   * S. Grimme, J. Chem. Theory Comput., 2019, 155, 2847-2862
     DOI: 10.1021/acs.jctc.9b00143
   
   for SPH calculations refer to:
   * S. Spicher and S. Grimme, J. Chem. Theory Comput., 2021, 17, 1701-1714
     DOI: 10.1021/acs.jctc.0c01306
   
   for ONIOM refer to:
   * C. Plett, A. Katbashev, S. Ehlert, S. Grimme, M. Bursch,
     Phys. Chem. Chem. Phys., 2023, 25, 17860-17868. DOI: 10.1039/D3CP02178E
   
   for DIPRO refer to:
   * J. Kohn, N. Gildemeister, S. Grimme, D. Fazzi, A. Hansen,
     J. Chem. Phys., 2023, just accepted.
   
   for PTB refer to:
   * S. Grimme, M. Mueller, A. Hansen, J. Chem. Phys., 2023, 158, 124111.
     DOI: 10.1063/5.0137838
   
   with help from (in alphabetical order)
   P. Atkinson, C. Bannwarth, F. Bohle, G. Brandenburg, E. Caldeweyher
   M. Checinski, S. Dohm, S. Ehlert, S. Ehrlich, I. Gerasimov, C. Hölzer
   A. Katbashev, J. Kohn, J. Koopman, C. Lavigne, S. Lehtola, F. März, M. Müller,
   F. Musil, H. Neugebauer, J. Pisarek, C. Plett, P. Pracht, F. Pultar,
   J. Seibert, P. Shushkov, S. Spicher, M. Stahn, M. Steiner, T. Strunk,
   J. Stückrath, T. Rose, and J. Unsleber
   
 * started run on 2025/06/23 at 11:32:16.316     
$$$$$$$$$$$$$$$$$$$$$$$$$$$$$$$$$$$$$$$$$$$$$$$$$$$$$$$$$$$$$$$$$$$$$$$$
 CONSTRAINTS & SCANS: DEBUG SECTION
$$$$$$$$$$$$$$$$$$$$$$$$$$$$$$$$$$$$$$$$$$$$$$$$$$$$$$$$$$$$$$$$$$$$$$$$
   ID    Z sym.   atoms
    1    6 C      1, 2
    2   17 Cl     3
    3    8 O      4
    4    1 H      5-9
$$$$$$$$$$$$$$$$$$$$$$$$$$$$$$$$$$$$$$$$$$$$$$$$$$$$$$$$$$$$$$$$$$$$$$$$

           -------------------------------------------------
          |                Calculation Setup                |
           -------------------------------------------------

          program call               : C:\Users\nkapa\Downloads\xtb-6.7.1pre-windows-x86_64\xtb-6.7.1\bin\xtb.EXE dft_tmp\334.xyz --gfn2 --parallel 8 --verbose
          coordinate file            : dft_tmp\334.xyz
          xtbhome directory          : C:\Users\nkapa\AppData\Roaming\SPB_Data
          path for xtb               : C:\Users\nkapa\Downloads\xtb-6.7.1pre-windows-x86_64\xtb-6.7.1\share\xtb
          xcontrol input file        : dft_tmp\334.xyz
          omp threads                :                     8


           -------------------------------------------------
          |                 G F N 2 - x T B                 |
           -------------------------------------------------

        Reference                      10.1021/acs.jctc.8b01176
      * Hamiltonian:
        H0-scaling (s, p, d)           1.850000    2.230000    2.230000
        zeta-weighting                 0.500000
      * Dispersion:
        s8                             2.700000
        a1                             0.520000
        a2                             5.000000
        s9                             5.000000
      * Repulsion:
        kExp                           1.500000    1.000000
        rExp                           1.000000
      * Coulomb:
        alpha                          2.000000
        third order                    shell-resolved
        anisotropic                    true
        a3                             3.000000
        a5                             4.000000
        cn-shift                       1.200000
        cn-exp                         4.000000
        max-rad                        5.000000


          ...................................................
          :                      SETUP                      :
          :.................................................:
          :  # basis functions                  27          :
          :  # atomic orbitals                  26          :
          :  # shells                           14          :
          :  # electrons                        26          :
          :  max. iterations                   250          :
          :  Hamiltonian                  GFN2-xTB          :
          :  restarted?                      false          :
          :  GBSA solvation                  false          :
          :  PC potential                    false          :
          :  electronic temp.          300.0000000     K    :
          :  accuracy                    1.0000000          :
          :  -> integral cutoff          0.2500000E+02      :
          :  -> integral neglect         0.1000000E-07      :
          :  -> SCF convergence          0.1000000E-05 Eh   :
          :  -> wf. convergence          0.1000000E-03 e    :
          :  Broyden damping             0.4000000          :
          :  net charge                          0          :
          :  unpaired electrons                  0          :
          ...................................................

 iter      E             dE          RMSdq      gap      omega  full diag
   1    -15.4926107 -0.154926E+02  0.430E+00    7.14       0.0  T
   2    -15.5216944 -0.290837E-01  0.238E+00    6.75       1.0  T
   3    -15.5224673 -0.772958E-03  0.105E+00    6.88       1.0  T
   4    -15.5229125 -0.445190E-03  0.149E-01    6.81       1.0  T
   5    -15.5229468 -0.342722E-04  0.869E-02    6.83       1.0  T
   6    -15.5229543 -0.751432E-05  0.371E-02    6.82       1.0  T
   7    -15.5229575 -0.325056E-05  0.227E-02    6.81       1.5  T
   8    -15.5229590 -0.146382E-05  0.152E-02    6.81       2.2  T
   9    -15.5229601 -0.105483E-05  0.560E-03    6.81       6.0  T
  10    -15.5229601 -0.730923E-07  0.148E-03    6.80      22.6  T
  11    -15.5229601 -0.219658E-08  0.106E-03    6.80      31.4  T
  12    -15.5229601 -0.447275E-08  0.518E-04    6.80      64.3  T
  13    -15.5229601 -0.798520E-09  0.648E-05    6.80     514.1  T

   *** convergence criteria satisfied after 13 iterations ***

         #    Occupation            Energy/Eh            Energy/eV
      -------------------------------------------------------------
         1        2.0000           -1.0480279             -28.5183
       ...           ...                  ...                  ...
         7        2.0000           -0.5413376             -14.7305
         8        2.0000           -0.5074448             -13.8083
         9        2.0000           -0.5012043             -13.6385
        10        2.0000           -0.4639184             -12.6239
        11        2.0000           -0.4381819             -11.9235
        12        2.0000           -0.4120779             -11.2132
        13        2.0000           -0.4092046             -11.1350 (HOMO)
        14                         -0.1591989              -4.3320 (LUMO)
        15                          0.0100169               0.2726
        16                          0.0188715               0.5135
        17                          0.0281855               0.7670
        18                          0.0291442               0.7931
       ...                                ...                  ...
        26                          0.2105761               5.7301
      -------------------------------------------------------------
                  HL-Gap            0.2500058 Eh            6.8030 eV
             Fermi-level           -0.2842018 Eh           -7.7335 eV

 SCC (total)                   0 d,  0 h,  0 min,  0.013 sec
 SCC setup                      ...        0 min,  0.000 sec (  0.000%)
 Dispersion                     ...        0 min,  0.001 sec (  7.692%)
 classical contributions        ...        0 min,  0.000 sec (  0.000%)
 integral evaluation            ...        0 min,  0.000 sec (  0.000%)
 iterations                     ...        0 min,  0.010 sec ( 76.923%)
 molecular gradient             ...        0 min,  0.001 sec (  7.694%)
 printout                       ...        0 min,  0.001 sec (  7.692%)

         :::::::::::::::::::::::::::::::::::::::::::::::::::::
         ::                     SUMMARY                     ::
         :::::::::::::::::::::::::::::::::::::::::::::::::::::
         :: total energy             -15.428459225652 Eh    ::
         :: gradient norm              0.043756782405 Eh/a0 ::
         :: HOMO-LUMO gap              6.803003489867 eV    ::
         ::.................................................::
         :: HOMO orbital eigv.       -11.135024997271 eV    ::
         :: LUMO orbital eigv.        -4.332021507403 eV    ::
         ::.................................................::
         :: SCC energy               -15.522958673664 Eh    ::
         :: -> isotropic ES            0.028890600100 Eh    ::
         :: -> anisotropic ES          0.002716109834 Eh    ::
         :: -> anisotropic XC          0.002369490516 Eh    ::
         :: -> dispersion             -0.004108752500 Eh    ::
         :: repulsion energy           0.094499448012 Eh    ::
         :: add. restraining           0.000000000000 Eh    ::
         :: total charge              -0.000000000000 e     ::
         ::.................................................::
         :: atomisation energy         1.968782684858 Eh    ::
         :::::::::::::::::::::::::::::::::::::::::::::::::::::

           -------------------------------------------------
          |                Property Printout                |
           -------------------------------------------------

    * Orbital Energies and Occupations

         #    Occupation            Energy/Eh            Energy/eV
      -------------------------------------------------------------
         1        2.0000           -1.0480279             -28.5183
         2        2.0000           -0.7029164             -19.1273
         3        2.0000           -0.6509643             -17.7136
         4        2.0000           -0.6146133             -16.7245
         5        2.0000           -0.5784387             -15.7401
         6        2.0000           -0.5542735             -15.0825
         7        2.0000           -0.5413376             -14.7305
         8        2.0000           -0.5074448             -13.8083
         9        2.0000           -0.5012043             -13.6385
        10        2.0000           -0.4639184             -12.6239
        11        2.0000           -0.4381819             -11.9235
        12        2.0000           -0.4120779             -11.2132
        13        2.0000           -0.4092046             -11.1350 (HOMO)
        14                         -0.1591989              -4.3320 (LUMO)
        15                          0.0100169               0.2726
        16                          0.0188715               0.5135
        17                          0.0281855               0.7670
        18                          0.0291442               0.7931
        19                          0.0350854               0.9547
        20                          0.0856114               2.3296
        21                          0.0969399               2.6379
        22                          0.1097008               2.9851
        23                          0.1408806               3.8336
        24                          0.1470799               4.0022
       ...                                ...                  ...
        26                          0.2105761               5.7301
      -------------------------------------------------------------
                  HL-Gap            0.2500058 Eh            6.8030 eV
             Fermi-level           -0.2842018 Eh           -7.7335 eV

     #   Z          covCN         q      C6AA      α(0)
     1   6 C        3.696     0.080    19.403     6.301
     2   6 C        3.706     0.017    20.431     6.461
     3  17 Cl       0.916    -0.184   104.914    15.670
     4   8 O        1.652    -0.418    21.195     6.215
     5   1 H        0.922     0.065     2.146     2.291
     6   1 H        0.921     0.025     2.667     2.554
     7   1 H        0.922     0.061     2.191     2.315
     8   1 H        0.922     0.062     2.173     2.305
     9   1 H        0.801     0.292     0.747     1.358

 Mol. C6AA /au·bohr⁶  :        937.877867
 Mol. C8AA /au·bohr⁸  :      25155.435368
 Mol. α(0) /au        :         45.470282


Wiberg/Mayer (AO) data.
largest (>0.10) Wiberg bond orders for each atom

 ---------------------------------------------------------------------------
     #   Z sym  total        # sym  WBO       # sym  WBO       # sym  WBO
 ---------------------------------------------------------------------------
     1   6 C    3.963 --     4 O    1.014     2 C    1.002     5 H    0.968
                             6 H    0.964
     2   6 C    3.947 --     1 C    1.002     7 H    0.977     8 H    0.976
                             3 Cl   0.961
     3  17 Cl   1.008 --     2 C    0.961
     4   8 O    1.975 --     1 C    1.014     9 H    0.900
     5   1 H    0.996 --     1 C    0.968
     6   1 H    0.999 --     1 C    0.964
     7   1 H    0.996 --     2 C    0.977
     8   1 H    0.996 --     2 C    0.976
     9   1 H    0.915 --     4 O    0.900
 ---------------------------------------------------------------------------

Topologies differ in total number of bonds
Writing topology from bond orders to xtbtopo.mol

molecular dipole:
                 x           y           z       tot (Debye)
 q only:        0.523      -0.157       1.065
   full:        0.558      -0.121       1.253       3.501
molecular quadrupole (traceless):
                xx          xy          yy          xz          yz          zz
 q only:       -1.471       2.177       2.884      -0.795       1.408      -1.413
  q+dip:       -2.025       2.534       3.908       0.357       2.481      -1.882
   full:       -1.872       2.546       3.500       0.680       1.992      -1.628


           -------------------------------------------------
          | TOTAL ENERGY              -15.428459225652 Eh   |
          | GRADIENT NORM               0.043756782405 Eh/α |
          | HOMO-LUMO GAP               6.803003489867 eV   |
           -------------------------------------------------
########################################################################
[WARNING] Runtime exception occurred
-2- restart_readRestart: Dimension missmatch in restart file.
-1- restart_readRestart: Number of electron missmatch in restart file.
########################################################################

------------------------------------------------------------------------
 unit  open   action     filename
  129 false : read       dft_tmp\334.xyz
  129 false : read       dft_tmp\334.xyz
  129 false : read       dft_tmp\334.xyz
  129 false : read       C:\Users\nkapa\Downloads\xtb-6.7.1pre-windows-x86_64\xtb-6.7.1\share\xtb\param_gfn2-xtb.txt
  129 false : read       xtbrestart
  129 false : replaced   charges
  129 false : replaced   wbo
  129 false : replaced   xtbtopo.mol
  129 false : replaced   xtbrestart

------------------------------------------------------------------------
 * finished run on 2025/06/23 at 11:32:16.383     
------------------------------------------------------------------------
 total:
 * wall-time:     0 d,  0 h,  0 min,  0.065 sec
 *  cpu-time:     0 d,  0 h,  0 min,  0.266 sec
 * ratio c/w:     4.087 speedup
 SCF:
 * wall-time:     0 d,  0 h,  0 min,  0.014 sec
 *  cpu-time:     0 d,  0 h,  0 min,  0.109 sec
 * ratio c/w:     7.813 speedup

normal termination of xtb
