      -----------------------------------------------------------      
     |                   =====================                   |     
     |                           x T B                           |     
     |                   =====================                   |     
     |                         S. Grimme                         |     
     |          Mulliken Center for Theoretical Chemistry        |     
     |                    University of Bonn                     |     
      -----------------------------------------------------------      

   * xtb version 6.7.1pre (5071a88) compiled by 'Marcel@Raven' on 2024-07-23

   xtb is free software: you can redistribute it and/or modify it under
   the terms of the GNU Lesser General Public License as published by
   the Free Software Foundation, either version 3 of the License, or
   (at your option) any later version.
   
   xtb is distributed in the hope that it will be useful,
   but WITHOUT ANY WARRANTY; without even the implied warranty of
   MERCHANTABILITY or FITNESS FOR A PARTICULAR PURPOSE.  See the
   GNU Lesser General Public License for more details.
   
   Cite this work as:
   * C. Bannwarth, E. Caldeweyher, S. Ehlert, A. Hansen, P. Pracht,
     J. Seibert, S. Spicher, S. Grimme, WIREs Comput. Mol. Sci., 2020, 11,
     e01493. DOI: 10.1002/wcms.1493
   
   for GFN2-xTB:
   * C. Bannwarth, S. Ehlert and S. Grimme., J. Chem. Theory Comput., 2019,
     15, 1652-1671. DOI: 10.1021/acs.jctc.8b01176
   for GFN1-xTB:
   * S. Grimme, C. Bannwarth, P. Shushkov, J. Chem. Theory Comput., 2017,
     13, 1989-2009. DOI: 10.1021/acs.jctc.7b00118
   for GFN0-xTB:
   * P. Pracht, E. Caldeweyher, S. Ehlert, S. Grimme, ChemRxiv, 2019, preprint.
     DOI: 10.26434/chemrxiv.8326202.v1
   for GFN-FF:
   * S. Spicher and S. Grimme, Angew. Chem. Int. Ed., 2020, 59, 15665-15673.
     DOI: 10.1002/anie.202004239
   
   for ALPB and GBSA implicit solvation:
   * S. Ehlert, M. Stahn, S. Spicher, S. Grimme, J. Chem. Theory Comput.,
     2021, 17, 4250-4261. DOI: 10.1021/acs.jctc.1c00471
   
   for ddCOSMO and CPCM-X implicit solvation:
   * M. Stahn, S. Ehlert, S. Grimme, J. Phys. Chem. A,
     2023, XX, XXXX-XXXX. DOI: 10.1021/acs.jpca.3c04382
   
   for DFT-D4:
   * E. Caldeweyher, C. Bannwarth and S. Grimme, J. Chem. Phys., 2017,
     147, 034112. DOI: 10.1063/1.4993215
   * E. Caldeweyher, S. Ehlert, A. Hansen, H. Neugebauer, S. Spicher,
     C. Bannwarth and S. Grimme, J. Chem. Phys., 2019, 150, 154122.
     DOI: 10.1063/1.5090222
   * E. Caldeweyher, J.-M. Mewes, S. Ehlert and S. Grimme, Phys. Chem. Chem. Phys.
     2020, 22, 8499-8512. DOI: 10.1039/D0CP00502A
   
   for sTDA-xTB:
   * S. Grimme and C. Bannwarth, J. Chem. Phys., 2016, 145, 054103.
     DOI: 10.1063/1.4959605
   
   in the mass-spec context:
   * V. Asgeirsson, C. Bauer and S. Grimme, Chem. Sci., 2017, 8, 4879.
     DOI: 10.1039/c7sc00601b
   * J. Koopman and S. Grimme, ACS Omega 2019, 4, 12, 15120-15133.
     DOI: 10.1021/acsomega.9b02011
   
   for metadynamics refer to:
   * S. Grimme, J. Chem. Theory Comput., 2019, 155, 2847-2862
     DOI: 10.1021/acs.jctc.9b00143
   
   for SPH calculations refer to:
   * S. Spicher and S. Grimme, J. Chem. Theory Comput., 2021, 17, 1701-1714
     DOI: 10.1021/acs.jctc.0c01306
   
   for ONIOM refer to:
   * C. Plett, A. Katbashev, S. Ehlert, S. Grimme, M. Bursch,
     Phys. Chem. Chem. Phys., 2023, 25, 17860-17868. DOI: 10.1039/D3CP02178E
   
   for DIPRO refer to:
   * J. Kohn, N. Gildemeister, S. Grimme, D. Fazzi, A. Hansen,
     J. Chem. Phys., 2023, just accepted.
   
   for PTB refer to:
   * S. Grimme, M. Mueller, A. Hansen, J. Chem. Phys., 2023, 158, 124111.
     DOI: 10.1063/5.0137838
   
   with help from (in alphabetical order)
   P. Atkinson, C. Bannwarth, F. Bohle, G. Brandenburg, E. Caldeweyher
   M. Checinski, S. Dohm, S. Ehlert, S. Ehrlich, I. Gerasimov, C. Hölzer
   A. Katbashev, J. Kohn, J. Koopman, C. Lavigne, S. Lehtola, F. März, M. Müller,
   F. Musil, H. Neugebauer, J. Pisarek, C. Plett, P. Pracht, F. Pultar,
   J. Seibert, P. Shushkov, S. Spicher, M. Stahn, M. Steiner, T. Strunk,
   J. Stückrath, T. Rose, and J. Unsleber
   
 * started run on 2025/06/23 at 11:32:16.550     
$$$$$$$$$$$$$$$$$$$$$$$$$$$$$$$$$$$$$$$$$$$$$$$$$$$$$$$$$$$$$$$$$$$$$$$$
 CONSTRAINTS & SCANS: DEBUG SECTION
$$$$$$$$$$$$$$$$$$$$$$$$$$$$$$$$$$$$$$$$$$$$$$$$$$$$$$$$$$$$$$$$$$$$$$$$
   ID    Z sym.   atoms
    1    6 C      1-7
    2    8 O      8, 9
    3    1 H      10-15
$$$$$$$$$$$$$$$$$$$$$$$$$$$$$$$$$$$$$$$$$$$$$$$$$$$$$$$$$$$$$$$$$$$$$$$$

           -------------------------------------------------
          |                Calculation Setup                |
           -------------------------------------------------

          program call               : C:\Users\nkapa\Downloads\xtb-6.7.1pre-windows-x86_64\xtb-6.7.1\bin\xtb.EXE dft_tmp\336.xyz --gfn2 --parallel 8 --verbose
          coordinate file            : dft_tmp\336.xyz
          xtbhome directory          : C:\Users\nkapa\AppData\Roaming\SPB_Data
          path for xtb               : C:\Users\nkapa\Downloads\xtb-6.7.1pre-windows-x86_64\xtb-6.7.1\share\xtb
          xcontrol input file        : dft_tmp\336.xyz
          omp threads                :                     8


           -------------------------------------------------
          |                 G F N 2 - x T B                 |
           -------------------------------------------------

        Reference                      10.1021/acs.jctc.8b01176
      * Hamiltonian:
        H0-scaling (s, p, d)           1.850000    2.230000    2.230000
        zeta-weighting                 0.500000
      * Dispersion:
        s8                             2.700000
        a1                             0.520000
        a2                             5.000000
        s9                             5.000000
      * Repulsion:
        kExp                           1.500000    1.000000
        rExp                           1.000000
      * Coulomb:
        alpha                          2.000000
        third order                    shell-resolved
        anisotropic                    true
        a3                             3.000000
        a5                             4.000000
        cn-shift                       1.200000
        cn-exp                         4.000000
        max-rad                        5.000000


          ...................................................
          :                      SETUP                      :
          :.................................................:
          :  # basis functions                  42          :
          :  # atomic orbitals                  42          :
          :  # shells                           24          :
          :  # electrons                        46          :
          :  max. iterations                   250          :
          :  Hamiltonian                  GFN2-xTB          :
          :  restarted?                      false          :
          :  GBSA solvation                  false          :
          :  PC potential                    false          :
          :  electronic temp.          300.0000000     K    :
          :  accuracy                    1.0000000          :
          :  -> integral cutoff          0.2500000E+02      :
          :  -> integral neglect         0.1000000E-07      :
          :  -> SCF convergence          0.1000000E-05 Eh   :
          :  -> wf. convergence          0.1000000E-03 e    :
          :  Broyden damping             0.4000000          :
          :  net charge                          0          :
          :  unpaired electrons                  0          :
          ...................................................

 iter      E             dE          RMSdq      gap      omega  full diag
   1    -26.4305265 -0.264305E+02  0.573E+00    3.19       0.0  T
   2    -26.4633794 -0.328529E-01  0.313E+00    2.58       1.0  T
   3    -26.4592915  0.408795E-02  0.189E+00    3.11       1.0  T
   4    -26.4735981 -0.143066E-01  0.221E-01    2.81       1.0  T
   5    -26.4738072 -0.209059E-03  0.104E-01    2.82       1.0  T
   6    -26.4738750 -0.677832E-04  0.475E-02    2.83       1.0  T
   7    -26.4738841 -0.914121E-05  0.157E-02    2.82       1.6  T
   8    -26.4738846 -0.497121E-06  0.751E-03    2.82       3.4  T
   9    -26.4738850 -0.443369E-06  0.315E-03    2.82       8.2  T
  10    -26.4738851 -0.399706E-07  0.106E-03    2.82      24.3  T
  11    -26.4738851 -0.556958E-08  0.521E-04    2.82      49.5  T
  12    -26.4738851 -0.819362E-09  0.160E-04    2.82     161.9  T

   *** convergence criteria satisfied after 12 iterations ***

         #    Occupation            Energy/Eh            Energy/eV
      -------------------------------------------------------------
         1        2.0000           -0.7170771             -19.5127
       ...           ...                  ...                  ...
        17        2.0000           -0.4869619             -13.2509
        18        2.0000           -0.4721236             -12.8471
        19        2.0000           -0.4716764             -12.8350
        20        2.0000           -0.4411964             -12.0056
        21        2.0000           -0.4250176             -11.5653
        22        2.0000           -0.4066388             -11.0652
        23        2.0000           -0.3990058             -10.8575 (HOMO)
        24                         -0.2952683              -8.0347 (LUMO)
        25                         -0.2492355              -6.7820
        26                         -0.2064339              -5.6174
        27                         -0.1079665              -2.9379
        28                         -0.0347853              -0.9466
       ...                                ...                  ...
        42                          0.6055160              16.4769
      -------------------------------------------------------------
                  HL-Gap            0.1037375 Eh            2.8228 eV
             Fermi-level           -0.3471370 Eh           -9.4461 eV

 SCC (total)                   0 d,  0 h,  0 min,  0.012 sec
 SCC setup                      ...        0 min,  0.000 sec (  0.000%)
 Dispersion                     ...        0 min,  0.000 sec (  0.000%)
 classical contributions        ...        0 min,  0.001 sec (  8.335%)
 integral evaluation            ...        0 min,  0.001 sec (  8.333%)
 iterations                     ...        0 min,  0.008 sec ( 66.665%)
 molecular gradient             ...        0 min,  0.001 sec (  8.335%)
 printout                       ...        0 min,  0.001 sec (  8.333%)

         :::::::::::::::::::::::::::::::::::::::::::::::::::::
         ::                     SUMMARY                     ::
         :::::::::::::::::::::::::::::::::::::::::::::::::::::
         :: total energy             -26.135330426268 Eh    ::
         :: gradient norm              0.114023121644 Eh/a0 ::
         :: HOMO-LUMO gap              2.822841504958 eV    ::
         ::.................................................::
         :: HOMO orbital eigv.       -10.857500114340 eV    ::
         :: LUMO orbital eigv.        -8.034658609382 eV    ::
         ::.................................................::
         :: SCC energy               -26.473878886618 Eh    ::
         :: -> isotropic ES            0.046890089256 Eh    ::
         :: -> anisotropic ES          0.001691829929 Eh    ::
         :: -> anisotropic XC          0.009322301962 Eh    ::
         :: -> dispersion             -0.011579441354 Eh    ::
         :: repulsion energy           0.338548460350 Eh    ::
         :: add. restraining           0.000000000000 Eh    ::
         :: total charge              -0.000000000000 e     ::
         ::.................................................::
         :: atomisation energy         4.882691983301 Eh    ::
         :::::::::::::::::::::::::::::::::::::::::::::::::::::

           -------------------------------------------------
          |                Property Printout                |
           -------------------------------------------------

    * Orbital Energies and Occupations

         #    Occupation            Energy/Eh            Energy/eV
      -------------------------------------------------------------
         1        2.0000           -0.7170771             -19.5127
       ...           ...                  ...                  ...
        11        2.0000           -0.5361066             -14.5882
        12        2.0000           -0.5344110             -14.5421
        13        2.0000           -0.5200737             -14.1519
        14        2.0000           -0.5172552             -14.0752
        15        2.0000           -0.5083918             -13.8340
        16        2.0000           -0.4969384             -13.5224
        17        2.0000           -0.4869619             -13.2509
        18        2.0000           -0.4721236             -12.8471
        19        2.0000           -0.4716764             -12.8350
        20        2.0000           -0.4411964             -12.0056
        21        2.0000           -0.4250176             -11.5653
        22        2.0000           -0.4066388             -11.0652
        23        2.0000           -0.3990058             -10.8575 (HOMO)
        24                         -0.2952683              -8.0347 (LUMO)
        25                         -0.2492355              -6.7820
        26                         -0.2064339              -5.6174
        27                         -0.1079665              -2.9379
        28                         -0.0347853              -0.9466
        29                          0.0802285               2.1831
        30                          0.1061656               2.8889
        31                          0.1314661               3.5774
        32                          0.1382171               3.7611
        33                          0.1535945               4.1795
        34                          0.1765357               4.8038
       ...                                ...                  ...
        42                          0.6055160              16.4769
      -------------------------------------------------------------
                  HL-Gap            0.1037375 Eh            2.8228 eV
             Fermi-level           -0.3471370 Eh           -9.4461 eV

     #   Z          covCN         q      C6AA      α(0)
     1   6 C        2.914    -0.027    28.682     8.782
     2   6 C        2.910    -0.046    29.138     8.851
     3   6 C        2.835     0.161    24.514     8.114
     4   6 C        2.909    -0.062    29.541     8.912
     5   6 C        2.913    -0.014    28.356     8.732
     6   6 C        2.961    -0.010    28.258     8.719
     7   6 C        2.767     0.189    23.960     8.016
     8   8 O        0.856    -0.364    20.978     6.141
     9   8 O        1.648    -0.390    20.657     6.135
    10   1 H        0.925     0.050     2.315     2.379
    11   1 H        0.925     0.061     2.186     2.312
    12   1 H        0.925     0.044     2.394     2.419
    13   1 H        0.925     0.072     2.064     2.246
    14   1 H        0.925     0.035     2.521     2.483
    15   1 H        0.796     0.300     0.722     1.335

 Mol. C6AA /au·bohr⁶  :       2926.436789
 Mol. C8AA /au·bohr⁸  :      71261.897018
 Mol. α(0) /au        :         85.578193


Wiberg/Mayer (AO) data.
largest (>0.10) Wiberg bond orders for each atom

 ---------------------------------------------------------------------------
     #   Z sym  total        # sym  WBO       # sym  WBO       # sym  WBO
 ---------------------------------------------------------------------------
     1   6 C    3.989 --     2 C    1.474     6 C    1.359    10 H    0.968
     2   6 C    3.987 --     1 C    1.474     3 C    1.355    11 H    0.967
     3   6 C    3.935 --     4 C    1.358     2 C    1.355     9 O    1.075
     4   6 C    3.988 --     5 C    1.474     3 C    1.358    12 H    0.967
     5   6 C    3.986 --     4 C    1.474     6 C    1.356    13 H    0.966
     6   6 C    3.988 --     1 C    1.359     5 C    1.356     7 C    1.089
     7   6 C    3.925 --     8 O    1.823     6 C    1.089    14 H    0.947
     8   8 O    2.022 --     7 C    1.823
     9   8 O    2.114 --     3 C    1.075    15 H    0.885
    10   1 H    0.997 --     1 C    0.968
    11   1 H    0.996 --     2 C    0.967
    12   1 H    0.998 --     4 C    0.967
    13   1 H    0.995 --     5 C    0.966
    14   1 H    0.998 --     7 C    0.947
    15   1 H    0.909 --     9 O    0.885
 ---------------------------------------------------------------------------

Topologies differ in total number of bonds
Writing topology from bond orders to xtbtopo.mol

molecular dipole:
                 x           y           z       tot (Debye)
 q only:       -1.359       0.240       0.035
   full:       -1.477       0.216       0.034       3.796
molecular quadrupole (traceless):
                xx          xy          yy          xz          yz          zz
 q only:       -7.047      10.968       5.792       0.959       0.229       1.255
  q+dip:       -6.960      15.563       8.892       1.281       0.671      -1.932
   full:       -8.315      15.325       6.856       1.318       0.245       1.459


           -------------------------------------------------
          | TOTAL ENERGY              -26.135330426268 Eh   |
          | GRADIENT NORM               0.114023121644 Eh/α |
          | HOMO-LUMO GAP               2.822841504958 eV   |
           -------------------------------------------------
########################################################################
[WARNING] Runtime exception occurred
-2- restart_readRestart: Dimension missmatch in restart file.
-1- restart_readRestart: Number of electron missmatch in restart file.
########################################################################

------------------------------------------------------------------------
 unit  open   action     filename
  129 false : read       dft_tmp\336.xyz
  129 false : read       dft_tmp\336.xyz
  129 false : read       dft_tmp\336.xyz
  129 false : read       C:\Users\nkapa\Downloads\xtb-6.7.1pre-windows-x86_64\xtb-6.7.1\share\xtb\param_gfn2-xtb.txt
  129 false : read       xtbrestart
  129 false : replaced   charges
  129 false : replaced   wbo
  129 false : replaced   xtbtopo.mol
  129 false : replaced   xtbrestart

------------------------------------------------------------------------
 * finished run on 2025/06/23 at 11:32:16.606     
------------------------------------------------------------------------
 total:
 * wall-time:     0 d,  0 h,  0 min,  0.054 sec
 *  cpu-time:     0 d,  0 h,  0 min,  0.375 sec
 * ratio c/w:     6.944 speedup
 SCF:
 * wall-time:     0 d,  0 h,  0 min,  0.012 sec
 *  cpu-time:     0 d,  0 h,  0 min,  0.000 sec
 * ratio c/w:     0.000 speedup

normal termination of xtb
