31

C -1.128354 -2.825432 -0.329639
C -1.405898 -1.408329 0.175707
P -0.417057 -0.143279 -0.789823
C 1.288056 -0.515754 -0.098019
C 2.320015 0.508203 -0.568848
C 3.702959 0.069352 -0.198147
O 4.287560 -0.822608 -0.872737
O 4.329078 0.629458 0.911482
C -0.896334 1.367339 0.210781
C -0.661345 2.645604 -0.596362
C -1.030294 3.863042 0.193009
O -0.557903 4.038081 1.350725
O -1.862479 4.827699 -0.371123
C -2.004288 -3.825507 0.357575
O -2.022694 -3.890908 1.617402
O -2.767222 -4.714547 -0.396014
H -1.308731 -2.870813 -1.425787
H -0.070848 -3.102755 -0.135197
H -2.486079 -1.174531 0.045639
H -1.156072 -1.329195 1.255073
H 1.591797 -1.519768 -0.456851
H 1.255071 -0.541317 1.010592
H 2.119817 1.485787 -0.086899
H 2.256458 0.630939 -1.672591
H 5.259250 0.333817 1.185496
H -0.322053 1.387815 1.161027
H -1.975629 1.299978 0.462969
H 0.401575 2.729950 -0.896577
H -1.274493 2.610548 -1.521046
H -2.110523 5.662565 0.144621
H -3.353343 -5.405436 0.055001
