22

C -1.982764 1.257845 1.477119
C -1.790316 0.546995 0.141812
N -0.428045 -0.000044 0.040417
C -0.229531 -1.437266 0.287941
C -0.050610 -2.191509 -1.026272
C 0.670154 0.884512 -0.299330
O 0.424382 2.089780 -0.584559
C 2.079995 0.421492 -0.319298
C 3.090089 1.233334 -0.630364
H -3.021301 1.644154 1.547894
H -1.278513 2.111165 1.567981
H -1.806074 0.548747 2.313490
H -1.985702 1.251823 -0.695184
H -2.547778 -0.262557 0.055351
H -1.108048 -1.866590 0.817601
H 0.635772 -1.603294 0.962169
H 0.089446 -3.273197 -0.818801
H -0.952770 -2.062981 -1.661172
H 0.835220 -1.818408 -1.579919
H 2.324854 -0.602556 -0.079624
H 4.104324 0.855268 -0.634024
H 2.927219 2.273288 -0.883228
