19

C -2.034845 1.198533 -0.383059
C -1.978534 -0.156494 0.266621
C -3.112766 -0.769217 0.626588
C -0.667523 -0.823525 0.431292
O -0.589615 -1.955513 0.985262
O 0.489614 -0.189880 -0.033361
C 1.786225 -0.765900 0.091053
C 2.825200 0.170249 -0.510901
O 2.829061 1.385079 0.185823
H -1.924887 1.085659 -1.481887
H -2.994518 1.716756 -0.169067
H -1.212984 1.840234 -0.001094
H -3.105432 -1.755579 1.072940
H -4.074514 -0.293859 0.478336
H 1.815441 -1.738096 -0.447403
H 2.020122 -0.939730 1.164188
H 3.828089 -0.306741 -0.440654
H 2.584290 0.347817 -1.582946
H 3.517579 1.950207 -0.251731
