      -----------------------------------------------------------      
     |                   =====================                   |     
     |                           x T B                           |     
     |                   =====================                   |     
     |                         S. Grimme                         |     
     |          Mulliken Center for Theoretical Chemistry        |     
     |                    University of Bonn                     |     
      -----------------------------------------------------------      

   * xtb version 6.7.1pre (5071a88) compiled by 'Marcel@Raven' on 2024-07-23

   xtb is free software: you can redistribute it and/or modify it under
   the terms of the GNU Lesser General Public License as published by
   the Free Software Foundation, either version 3 of the License, or
   (at your option) any later version.
   
   xtb is distributed in the hope that it will be useful,
   but WITHOUT ANY WARRANTY; without even the implied warranty of
   MERCHANTABILITY or FITNESS FOR A PARTICULAR PURPOSE.  See the
   GNU Lesser General Public License for more details.
   
   Cite this work as:
   * C. Bannwarth, E. Caldeweyher, S. Ehlert, A. Hansen, P. Pracht,
     J. Seibert, S. Spicher, S. Grimme, WIREs Comput. Mol. Sci., 2020, 11,
     e01493. DOI: 10.1002/wcms.1493
   
   for GFN2-xTB:
   * C. Bannwarth, S. Ehlert and S. Grimme., J. Chem. Theory Comput., 2019,
     15, 1652-1671. DOI: 10.1021/acs.jctc.8b01176
   for GFN1-xTB:
   * S. Grimme, C. Bannwarth, P. Shushkov, J. Chem. Theory Comput., 2017,
     13, 1989-2009. DOI: 10.1021/acs.jctc.7b00118
   for GFN0-xTB:
   * P. Pracht, E. Caldeweyher, S. Ehlert, S. Grimme, ChemRxiv, 2019, preprint.
     DOI: 10.26434/chemrxiv.8326202.v1
   for GFN-FF:
   * S. Spicher and S. Grimme, Angew. Chem. Int. Ed., 2020, 59, 15665-15673.
     DOI: 10.1002/anie.202004239
   
   for ALPB and GBSA implicit solvation:
   * S. Ehlert, M. Stahn, S. Spicher, S. Grimme, J. Chem. Theory Comput.,
     2021, 17, 4250-4261. DOI: 10.1021/acs.jctc.1c00471
   
   for ddCOSMO and CPCM-X implicit solvation:
   * M. Stahn, S. Ehlert, S. Grimme, J. Phys. Chem. A,
     2023, XX, XXXX-XXXX. DOI: 10.1021/acs.jpca.3c04382
   
   for DFT-D4:
   * E. Caldeweyher, C. Bannwarth and S. Grimme, J. Chem. Phys., 2017,
     147, 034112. DOI: 10.1063/1.4993215
   * E. Caldeweyher, S. Ehlert, A. Hansen, H. Neugebauer, S. Spicher,
     C. Bannwarth and S. Grimme, J. Chem. Phys., 2019, 150, 154122.
     DOI: 10.1063/1.5090222
   * E. Caldeweyher, J.-M. Mewes, S. Ehlert and S. Grimme, Phys. Chem. Chem. Phys.
     2020, 22, 8499-8512. DOI: 10.1039/D0CP00502A
   
   for sTDA-xTB:
   * S. Grimme and C. Bannwarth, J. Chem. Phys., 2016, 145, 054103.
     DOI: 10.1063/1.4959605
   
   in the mass-spec context:
   * V. Asgeirsson, C. Bauer and S. Grimme, Chem. Sci., 2017, 8, 4879.
     DOI: 10.1039/c7sc00601b
   * J. Koopman and S. Grimme, ACS Omega 2019, 4, 12, 15120-15133.
     DOI: 10.1021/acsomega.9b02011
   
   for metadynamics refer to:
   * S. Grimme, J. Chem. Theory Comput., 2019, 155, 2847-2862
     DOI: 10.1021/acs.jctc.9b00143
   
   for SPH calculations refer to:
   * S. Spicher and S. Grimme, J. Chem. Theory Comput., 2021, 17, 1701-1714
     DOI: 10.1021/acs.jctc.0c01306
   
   for ONIOM refer to:
   * C. Plett, A. Katbashev, S. Ehlert, S. Grimme, M. Bursch,
     Phys. Chem. Chem. Phys., 2023, 25, 17860-17868. DOI: 10.1039/D3CP02178E
   
   for DIPRO refer to:
   * J. Kohn, N. Gildemeister, S. Grimme, D. Fazzi, A. Hansen,
     J. Chem. Phys., 2023, just accepted.
   
   for PTB refer to:
   * S. Grimme, M. Mueller, A. Hansen, J. Chem. Phys., 2023, 158, 124111.
     DOI: 10.1063/5.0137838
   
   with help from (in alphabetical order)
   P. Atkinson, C. Bannwarth, F. Bohle, G. Brandenburg, E. Caldeweyher
   M. Checinski, S. Dohm, S. Ehlert, S. Ehrlich, I. Gerasimov, C. Hölzer
   A. Katbashev, J. Kohn, J. Koopman, C. Lavigne, S. Lehtola, F. März, M. Müller,
   F. Musil, H. Neugebauer, J. Pisarek, C. Plett, P. Pracht, F. Pultar,
   J. Seibert, P. Shushkov, S. Spicher, M. Stahn, M. Steiner, T. Strunk,
   J. Stückrath, T. Rose, and J. Unsleber
   
 * started run on 2025/06/23 at 11:32:18.611     
$$$$$$$$$$$$$$$$$$$$$$$$$$$$$$$$$$$$$$$$$$$$$$$$$$$$$$$$$$$$$$$$$$$$$$$$
 CONSTRAINTS & SCANS: DEBUG SECTION
$$$$$$$$$$$$$$$$$$$$$$$$$$$$$$$$$$$$$$$$$$$$$$$$$$$$$$$$$$$$$$$$$$$$$$$$
   ID    Z sym.   atoms
    1    6 C      1-6
    2    8 O      7
    3    1 H      8-13
$$$$$$$$$$$$$$$$$$$$$$$$$$$$$$$$$$$$$$$$$$$$$$$$$$$$$$$$$$$$$$$$$$$$$$$$

           -------------------------------------------------
          |                Calculation Setup                |
           -------------------------------------------------

          program call               : C:\Users\nkapa\Downloads\xtb-6.7.1pre-windows-x86_64\xtb-6.7.1\bin\xtb.EXE dft_tmp\353.xyz --gfn2 --parallel 8 --verbose
          coordinate file            : dft_tmp\353.xyz
          xtbhome directory          : C:\Users\nkapa\AppData\Roaming\SPB_Data
          path for xtb               : C:\Users\nkapa\Downloads\xtb-6.7.1pre-windows-x86_64\xtb-6.7.1\share\xtb
          xcontrol input file        : dft_tmp\353.xyz
          omp threads                :                     8


           -------------------------------------------------
          |                 G F N 2 - x T B                 |
           -------------------------------------------------

        Reference                      10.1021/acs.jctc.8b01176
      * Hamiltonian:
        H0-scaling (s, p, d)           1.850000    2.230000    2.230000
        zeta-weighting                 0.500000
      * Dispersion:
        s8                             2.700000
        a1                             0.520000
        a2                             5.000000
        s9                             5.000000
      * Repulsion:
        kExp                           1.500000    1.000000
        rExp                           1.000000
      * Coulomb:
        alpha                          2.000000
        third order                    shell-resolved
        anisotropic                    true
        a3                             3.000000
        a5                             4.000000
        cn-shift                       1.200000
        cn-exp                         4.000000
        max-rad                        5.000000


          ...................................................
          :                      SETUP                      :
          :.................................................:
          :  # basis functions                  34          :
          :  # atomic orbitals                  34          :
          :  # shells                           20          :
          :  # electrons                        36          :
          :  max. iterations                   250          :
          :  Hamiltonian                  GFN2-xTB          :
          :  restarted?                      false          :
          :  GBSA solvation                  false          :
          :  PC potential                    false          :
          :  electronic temp.          300.0000000     K    :
          :  accuracy                    1.0000000          :
          :  -> integral cutoff          0.2500000E+02      :
          :  -> integral neglect         0.1000000E-07      :
          :  -> SCF convergence          0.1000000E-05 Eh   :
          :  -> wf. convergence          0.1000000E-03 e    :
          :  Broyden damping             0.4000000          :
          :  net charge                          0          :
          :  unpaired electrons                  0          :
          ...................................................

 iter      E             dE          RMSdq      gap      omega  full diag
   1    -20.2269552 -0.202270E+02  0.486E+00    4.19       0.0  T
   2    -20.2403559 -0.134008E-01  0.289E+00    4.19       1.0  T
   3    -20.2345437  0.581228E-02  0.116E+00    4.15       1.0  T
   4    -20.2427936 -0.824995E-02  0.270E-01    4.22       1.0  T
   5    -20.2430576 -0.264001E-03  0.785E-02    4.24       1.0  T
   6    -20.2430760 -0.184317E-04  0.408E-02    4.22       1.0  T
   7    -20.2430807 -0.465903E-05  0.103E-02    4.22       2.7  T
   8    -20.2430807  0.268794E-07  0.486E-03    4.22       5.7  T
   9    -20.2430809 -0.246223E-06  0.157E-03    4.22      17.6  T
  10    -20.2430809 -0.526785E-08  0.453E-04    4.22      61.2  T
  11    -20.2430809 -0.108204E-08  0.186E-04    4.22     149.5  T

   *** convergence criteria satisfied after 11 iterations ***

         #    Occupation            Energy/Eh            Energy/eV
      -------------------------------------------------------------
         1        2.0000           -0.6959166             -18.9369
       ...           ...                  ...                  ...
        12        2.0000           -0.4776732             -12.9982
        13        2.0000           -0.4707717             -12.8103
        14        2.0000           -0.4548700             -12.3776
        15        2.0000           -0.4351877             -11.8421
        16        2.0000           -0.4221506             -11.4873
        17        2.0000           -0.4018585             -10.9351
        18        2.0000           -0.3816512             -10.3853 (HOMO)
        19                         -0.2265973              -6.1660 (LUMO)
        20                         -0.2163523              -5.8872
        21                         -0.0963001              -2.6205
        22                         -0.0148241              -0.4034
        23                          0.1157959               3.1510
       ...                                ...                  ...
        34                          0.6317562              17.1910
      -------------------------------------------------------------
                  HL-Gap            0.1550539 Eh            4.2192 eV
             Fermi-level           -0.3041242 Eh           -8.2756 eV

 SCC (total)                   0 d,  0 h,  0 min,  0.010 sec
 SCC setup                      ...        0 min,  0.000 sec (  0.000%)
 Dispersion                     ...        0 min,  0.001 sec (  9.999%)
 classical contributions        ...        0 min,  0.000 sec (  0.000%)
 integral evaluation            ...        0 min,  0.000 sec (  0.000%)
 iterations                     ...        0 min,  0.007 sec ( 70.000%)
 molecular gradient             ...        0 min,  0.002 sec ( 20.001%)
 printout                       ...        0 min,  0.000 sec (  0.000%)

         :::::::::::::::::::::::::::::::::::::::::::::::::::::
         ::                     SUMMARY                     ::
         :::::::::::::::::::::::::::::::::::::::::::::::::::::
         :: total energy             -19.946419106325 Eh    ::
         :: gradient norm              0.055605530454 Eh/a0 ::
         :: HOMO-LUMO gap              4.219231933184 eV    ::
         ::.................................................::
         :: HOMO orbital eigv.       -10.385257749703 eV    ::
         :: LUMO orbital eigv.        -6.166025816519 eV    ::
         ::.................................................::
         :: SCC energy               -20.243070264400 Eh    ::
         :: -> isotropic ES            0.022729583044 Eh    ::
         :: -> anisotropic ES          0.003394330958 Eh    ::
         :: -> anisotropic XC          0.009326460024 Eh    ::
         :: -> dispersion             -0.008992654980 Eh    ::
         :: repulsion energy           0.296651158075 Eh    ::
         :: add. restraining           0.000000000000 Eh    ::
         :: total charge               0.000000000000 e     ::
         ::.................................................::
         :: atomisation energy         4.082452931623 Eh    ::
         :::::::::::::::::::::::::::::::::::::::::::::::::::::

           -------------------------------------------------
          |                Property Printout                |
           -------------------------------------------------

    * Orbital Energies and Occupations

         #    Occupation            Energy/Eh            Energy/eV
      -------------------------------------------------------------
         1        2.0000           -0.6959166             -18.9369
       ...           ...                  ...                  ...
         6        2.0000           -0.5757801             -15.6678
         7        2.0000           -0.5510962             -14.9961
         8        2.0000           -0.5255593             -14.3012
         9        2.0000           -0.5108258             -13.9003
        10        2.0000           -0.5097714             -13.8716
        11        2.0000           -0.4872563             -13.2589
        12        2.0000           -0.4776732             -12.9982
        13        2.0000           -0.4707717             -12.8103
        14        2.0000           -0.4548700             -12.3776
        15        2.0000           -0.4351877             -11.8421
        16        2.0000           -0.4221506             -11.4873
        17        2.0000           -0.4018585             -10.9351
        18        2.0000           -0.3816512             -10.3853 (HOMO)
        19                         -0.2265973              -6.1660 (LUMO)
        20                         -0.2163523              -5.8872
        21                         -0.0963001              -2.6205
        22                         -0.0148241              -0.4034
        23                          0.1157959               3.1510
        24                          0.1279086               3.4806
        25                          0.1599610               4.3528
        26                          0.1772481               4.8232
        27                          0.1807630               4.9188
        28                          0.1932253               5.2579
        29                          0.3826799              10.4132
       ...                                ...                  ...
        34                          0.6317562              17.1910
      -------------------------------------------------------------
                  HL-Gap            0.1550539 Eh            4.2192 eV
             Fermi-level           -0.3041242 Eh           -8.2756 eV

     #   Z          covCN         q      C6AA      α(0)
     1   6 C        2.910    -0.041    29.030     8.835
     2   6 C        2.910    -0.031    28.764     8.794
     3   6 C        2.910    -0.049    29.215     8.863
     4   6 C        2.835     0.150    24.735     8.150
     5   6 C        2.910    -0.065    29.617     8.924
     6   6 C        2.910    -0.032    28.793     8.799
     7   8 O        1.648    -0.404    20.937     6.177
     8   1 H        0.925     0.032     2.556     2.500
     9   1 H        0.925     0.038     2.479     2.462
    10   1 H        0.925     0.049     2.336     2.390
    11   1 H        0.925     0.029     2.597     2.520
    12   1 H        0.925     0.034     2.531     2.488
    13   1 H        0.796     0.290     0.753     1.364

 Mol. C6AA /au·bohr⁶  :       2044.336476
 Mol. C8AA /au·bohr⁸  :      49506.395186
 Mol. α(0) /au        :         72.265564


Wiberg/Mayer (AO) data.
largest (>0.10) Wiberg bond orders for each atom

 ---------------------------------------------------------------------------
     #   Z sym  total        # sym  WBO       # sym  WBO       # sym  WBO
 ---------------------------------------------------------------------------
     1   6 C    3.991 --     6 C    1.436     2 C    1.434     8 H    0.972
     2   6 C    3.991 --     3 C    1.449     1 C    1.434     9 H    0.971
                             5 C    0.108
     3   6 C    3.988 --     2 C    1.449     4 C    1.372    10 H    0.969
                             6 C    0.110
     4   6 C    3.932 --     5 C    1.376     3 C    1.372     7 O    1.054
     5   6 C    3.988 --     6 C    1.446     4 C    1.376    11 H    0.969
                             2 C    0.108
     6   6 C    3.991 --     5 C    1.446     1 C    1.436    12 H    0.972
                             3 C    0.110
     7   8 O    2.100 --     4 C    1.054    13 H    0.891
     8   1 H    0.999 --     1 C    0.972
     9   1 H    0.998 --     2 C    0.971
    10   1 H    0.998 --     3 C    0.969
    11   1 H    0.999 --     5 C    0.969
    12   1 H    0.999 --     6 C    0.972
    13   1 H    0.915 --     7 O    0.891
 ---------------------------------------------------------------------------

Topologies differ in total number of bonds
Writing topology from bond orders to xtbtopo.mol

molecular dipole:
                 x           y           z       tot (Debye)
 q only:        0.072       0.329       0.049
   full:        0.175       0.537       0.078       1.449
molecular quadrupole (traceless):
                xx          xy          yy          xz          yz          zz
 q only:        2.835       3.480      -0.626       0.343       0.106      -2.208
  q+dip:        4.978       5.497       0.963       0.412       0.890      -5.941
   full:        4.011       5.317      -0.388       0.526       0.296      -3.623


           -------------------------------------------------
          | TOTAL ENERGY              -19.946419106325 Eh   |
          | GRADIENT NORM               0.055605530454 Eh/α |
          | HOMO-LUMO GAP               4.219231933184 eV   |
           -------------------------------------------------
########################################################################
[WARNING] Runtime exception occurred
-2- restart_readRestart: Dimension missmatch in restart file.
-1- restart_readRestart: Number of electron missmatch in restart file.
########################################################################

------------------------------------------------------------------------
 unit  open   action     filename
  129 false : read       dft_tmp\353.xyz
  129 false : read       dft_tmp\353.xyz
  129 false : read       dft_tmp\353.xyz
  129 false : read       C:\Users\nkapa\Downloads\xtb-6.7.1pre-windows-x86_64\xtb-6.7.1\share\xtb\param_gfn2-xtb.txt
  129 false : read       xtbrestart
  129 false : replaced   charges
  129 false : replaced   wbo
  129 false : replaced   xtbtopo.mol
  129 false : replaced   xtbrestart

------------------------------------------------------------------------
 * finished run on 2025/06/23 at 11:32:18.665     
------------------------------------------------------------------------
 total:
 * wall-time:     0 d,  0 h,  0 min,  0.053 sec
 *  cpu-time:     0 d,  0 h,  0 min,  0.312 sec
 * ratio c/w:     5.896 speedup
 SCF:
 * wall-time:     0 d,  0 h,  0 min,  0.010 sec
 *  cpu-time:     0 d,  0 h,  0 min,  0.000 sec
 * ratio c/w:     0.000 speedup

normal termination of xtb
