17

C -1.702145 0.551190 -0.188671
C -0.298141 1.058972 -0.096069
C 0.403135 -0.050258 0.674725
O -0.286257 -1.263137 0.465507
C -1.526620 -0.953707 -0.130459
C 1.874984 -0.201377 0.277166
O 1.980139 -0.642598 -1.049015
H -2.198259 0.874879 -1.129580
H -2.291116 0.899718 0.688769
H 0.121220 1.175138 -1.120386
H -0.247203 2.031057 0.441378
H 0.358916 0.189690 1.761006
H -2.349251 -1.417791 0.454368
H -1.543015 -1.374736 -1.159101
H 2.394989 0.775872 0.395993
H 2.357017 -0.941789 0.953997
H 2.951608 -0.711123 -1.239627
