      -----------------------------------------------------------      
     |                   =====================                   |     
     |                           x T B                           |     
     |                   =====================                   |     
     |                         S. Grimme                         |     
     |          Mulliken Center for Theoretical Chemistry        |     
     |                    University of Bonn                     |     
      -----------------------------------------------------------      

   * xtb version 6.7.1pre (5071a88) compiled by 'Marcel@Raven' on 2024-07-23

   xtb is free software: you can redistribute it and/or modify it under
   the terms of the GNU Lesser General Public License as published by
   the Free Software Foundation, either version 3 of the License, or
   (at your option) any later version.
   
   xtb is distributed in the hope that it will be useful,
   but WITHOUT ANY WARRANTY; without even the implied warranty of
   MERCHANTABILITY or FITNESS FOR A PARTICULAR PURPOSE.  See the
   GNU Lesser General Public License for more details.
   
   Cite this work as:
   * C. Bannwarth, E. Caldeweyher, S. Ehlert, A. Hansen, P. Pracht,
     J. Seibert, S. Spicher, S. Grimme, WIREs Comput. Mol. Sci., 2020, 11,
     e01493. DOI: 10.1002/wcms.1493
   
   for GFN2-xTB:
   * C. Bannwarth, S. Ehlert and S. Grimme., J. Chem. Theory Comput., 2019,
     15, 1652-1671. DOI: 10.1021/acs.jctc.8b01176
   for GFN1-xTB:
   * S. Grimme, C. Bannwarth, P. Shushkov, J. Chem. Theory Comput., 2017,
     13, 1989-2009. DOI: 10.1021/acs.jctc.7b00118
   for GFN0-xTB:
   * P. Pracht, E. Caldeweyher, S. Ehlert, S. Grimme, ChemRxiv, 2019, preprint.
     DOI: 10.26434/chemrxiv.8326202.v1
   for GFN-FF:
   * S. Spicher and S. Grimme, Angew. Chem. Int. Ed., 2020, 59, 15665-15673.
     DOI: 10.1002/anie.202004239
   
   for ALPB and GBSA implicit solvation:
   * S. Ehlert, M. Stahn, S. Spicher, S. Grimme, J. Chem. Theory Comput.,
     2021, 17, 4250-4261. DOI: 10.1021/acs.jctc.1c00471
   
   for ddCOSMO and CPCM-X implicit solvation:
   * M. Stahn, S. Ehlert, S. Grimme, J. Phys. Chem. A,
     2023, XX, XXXX-XXXX. DOI: 10.1021/acs.jpca.3c04382
   
   for DFT-D4:
   * E. Caldeweyher, C. Bannwarth and S. Grimme, J. Chem. Phys., 2017,
     147, 034112. DOI: 10.1063/1.4993215
   * E. Caldeweyher, S. Ehlert, A. Hansen, H. Neugebauer, S. Spicher,
     C. Bannwarth and S. Grimme, J. Chem. Phys., 2019, 150, 154122.
     DOI: 10.1063/1.5090222
   * E. Caldeweyher, J.-M. Mewes, S. Ehlert and S. Grimme, Phys. Chem. Chem. Phys.
     2020, 22, 8499-8512. DOI: 10.1039/D0CP00502A
   
   for sTDA-xTB:
   * S. Grimme and C. Bannwarth, J. Chem. Phys., 2016, 145, 054103.
     DOI: 10.1063/1.4959605
   
   in the mass-spec context:
   * V. Asgeirsson, C. Bauer and S. Grimme, Chem. Sci., 2017, 8, 4879.
     DOI: 10.1039/c7sc00601b
   * J. Koopman and S. Grimme, ACS Omega 2019, 4, 12, 15120-15133.
     DOI: 10.1021/acsomega.9b02011
   
   for metadynamics refer to:
   * S. Grimme, J. Chem. Theory Comput., 2019, 155, 2847-2862
     DOI: 10.1021/acs.jctc.9b00143
   
   for SPH calculations refer to:
   * S. Spicher and S. Grimme, J. Chem. Theory Comput., 2021, 17, 1701-1714
     DOI: 10.1021/acs.jctc.0c01306
   
   for ONIOM refer to:
   * C. Plett, A. Katbashev, S. Ehlert, S. Grimme, M. Bursch,
     Phys. Chem. Chem. Phys., 2023, 25, 17860-17868. DOI: 10.1039/D3CP02178E
   
   for DIPRO refer to:
   * J. Kohn, N. Gildemeister, S. Grimme, D. Fazzi, A. Hansen,
     J. Chem. Phys., 2023, just accepted.
   
   for PTB refer to:
   * S. Grimme, M. Mueller, A. Hansen, J. Chem. Phys., 2023, 158, 124111.
     DOI: 10.1063/5.0137838
   
   with help from (in alphabetical order)
   P. Atkinson, C. Bannwarth, F. Bohle, G. Brandenburg, E. Caldeweyher
   M. Checinski, S. Dohm, S. Ehlert, S. Ehrlich, I. Gerasimov, C. Hölzer
   A. Katbashev, J. Kohn, J. Koopman, C. Lavigne, S. Lehtola, F. März, M. Müller,
   F. Musil, H. Neugebauer, J. Pisarek, C. Plett, P. Pracht, F. Pultar,
   J. Seibert, P. Shushkov, S. Spicher, M. Stahn, M. Steiner, T. Strunk,
   J. Stückrath, T. Rose, and J. Unsleber
   
 * started run on 2025/06/23 at 11:32:19.491     
$$$$$$$$$$$$$$$$$$$$$$$$$$$$$$$$$$$$$$$$$$$$$$$$$$$$$$$$$$$$$$$$$$$$$$$$
 CONSTRAINTS & SCANS: DEBUG SECTION
$$$$$$$$$$$$$$$$$$$$$$$$$$$$$$$$$$$$$$$$$$$$$$$$$$$$$$$$$$$$$$$$$$$$$$$$
   ID    Z sym.   atoms
    1    6 C      1, 3, 4
    2    7 N      2
    3    8 O      5
    4    1 H      6-12
$$$$$$$$$$$$$$$$$$$$$$$$$$$$$$$$$$$$$$$$$$$$$$$$$$$$$$$$$$$$$$$$$$$$$$$$

           -------------------------------------------------
          |                Calculation Setup                |
           -------------------------------------------------

          program call               : C:\Users\nkapa\Downloads\xtb-6.7.1pre-windows-x86_64\xtb-6.7.1\bin\xtb.EXE dft_tmp\361.xyz --gfn2 --parallel 8 --verbose
          coordinate file            : dft_tmp\361.xyz
          xtbhome directory          : C:\Users\nkapa\AppData\Roaming\SPB_Data
          path for xtb               : C:\Users\nkapa\Downloads\xtb-6.7.1pre-windows-x86_64\xtb-6.7.1\share\xtb
          xcontrol input file        : dft_tmp\361.xyz
          omp threads                :                     8


           -------------------------------------------------
          |                 G F N 2 - x T B                 |
           -------------------------------------------------

        Reference                      10.1021/acs.jctc.8b01176
      * Hamiltonian:
        H0-scaling (s, p, d)           1.850000    2.230000    2.230000
        zeta-weighting                 0.500000
      * Dispersion:
        s8                             2.700000
        a1                             0.520000
        a2                             5.000000
        s9                             5.000000
      * Repulsion:
        kExp                           1.500000    1.000000
        rExp                           1.000000
      * Coulomb:
        alpha                          2.000000
        third order                    shell-resolved
        anisotropic                    true
        a3                             3.000000
        a5                             4.000000
        cn-shift                       1.200000
        cn-exp                         4.000000
        max-rad                        5.000000


          ...................................................
          :                      SETUP                      :
          :.................................................:
          :  # basis functions                  27          :
          :  # atomic orbitals                  27          :
          :  # shells                           17          :
          :  # electrons                        30          :
          :  max. iterations                   250          :
          :  Hamiltonian                  GFN2-xTB          :
          :  restarted?                      false          :
          :  GBSA solvation                  false          :
          :  PC potential                    false          :
          :  electronic temp.          300.0000000     K    :
          :  accuracy                    1.0000000          :
          :  -> integral cutoff          0.2500000E+02      :
          :  -> integral neglect         0.1000000E-07      :
          :  -> SCF convergence          0.1000000E-05 Eh   :
          :  -> wf. convergence          0.1000000E-03 e    :
          :  Broyden damping             0.4000000          :
          :  net charge                          0          :
          :  unpaired electrons                  0          :
          ...................................................

 iter      E             dE          RMSdq      gap      omega  full diag
   1    -17.0635313 -0.170635E+02  0.426E+00    4.05       0.0  T
   2    -17.1193134 -0.557821E-01  0.241E+00    4.07       1.0  T
   3    -17.1247995 -0.548614E-02  0.142E+00    4.13       1.0  T
   4    -17.1257873 -0.987771E-03  0.225E-01    4.01       1.0  T
   5    -17.1262033 -0.416002E-03  0.112E-01    4.12       1.0  T
   6    -17.1262436 -0.402700E-04  0.485E-02    4.10       1.0  T
   7    -17.1262453 -0.175520E-05  0.111E-02    4.10       2.6  T
   8    -17.1262457 -0.395987E-06  0.330E-03    4.10       8.8  T
   9    -17.1262458 -0.353417E-07  0.108E-03    4.10      26.6  T
  10    -17.1262458 -0.767470E-08  0.236E-04    4.10     122.4  T
  11    -17.1262458 -0.105548E-09  0.130E-04    4.10     221.5  T

   *** convergence criteria satisfied after 11 iterations ***

         #    Occupation            Energy/Eh            Energy/eV
      -------------------------------------------------------------
         1        2.0000           -0.6814388             -18.5429
       ...           ...                  ...                  ...
         9        2.0000           -0.5014893             -13.6462
        10        2.0000           -0.4987240             -13.5710
        11        2.0000           -0.4892990             -13.3145
        12        2.0000           -0.4874441             -13.2640
        13        2.0000           -0.4760238             -12.9533
        14        2.0000           -0.3966482             -10.7933
        15        2.0000           -0.3867801             -10.5248 (HOMO)
        16                         -0.2362201              -6.4279 (LUMO)
        17                         -0.0482835              -1.3139
        18                          0.0582215               1.5843
        19                          0.0811691               2.2087
        20                          0.0988185               2.6890
       ...                                ...                  ...
        27                          0.4530008              12.3268
      -------------------------------------------------------------
                  HL-Gap            0.1505600 Eh            4.0969 eV
             Fermi-level           -0.3115001 Eh           -8.4763 eV

 SCC (total)                   0 d,  0 h,  0 min,  0.009 sec
 SCC setup                      ...        0 min,  0.001 sec ( 11.110%)
 Dispersion                     ...        0 min,  0.000 sec (  0.000%)
 classical contributions        ...        0 min,  0.000 sec (  0.000%)
 integral evaluation            ...        0 min,  0.000 sec (  0.000%)
 iterations                     ...        0 min,  0.006 sec ( 66.667%)
 molecular gradient             ...        0 min,  0.002 sec ( 22.223%)
 printout                       ...        0 min,  0.000 sec (  0.000%)

         :::::::::::::::::::::::::::::::::::::::::::::::::::::
         ::                     SUMMARY                     ::
         :::::::::::::::::::::::::::::::::::::::::::::::::::::
         :: total energy             -16.964258137829 Eh    ::
         :: gradient norm              0.119173393915 Eh/a0 ::
         :: HOMO-LUMO gap              4.096946301468 eV    ::
         ::.................................................::
         :: HOMO orbital eigv.       -10.524822821442 eV    ::
         :: LUMO orbital eigv.        -6.427876519974 eV    ::
         ::.................................................::
         :: SCC energy               -17.126238695379 Eh    ::
         :: -> isotropic ES            0.035248422538 Eh    ::
         :: -> anisotropic ES          0.003941260567 Eh    ::
         :: -> anisotropic XC          0.008026060700 Eh    ::
         :: -> dispersion             -0.005774036936 Eh    ::
         :: repulsion energy           0.161980557550 Eh    ::
         :: add. restraining           0.000000000000 Eh    ::
         :: total charge              -0.000000000000 e     ::
         ::.................................................::
         :: atomisation energy         3.044771172942 Eh    ::
         :::::::::::::::::::::::::::::::::::::::::::::::::::::

           -------------------------------------------------
          |                Property Printout                |
           -------------------------------------------------

    * Orbital Energies and Occupations

         #    Occupation            Energy/Eh            Energy/eV
      -------------------------------------------------------------
         1        2.0000           -0.6814388             -18.5429
       ...           ...                  ...                  ...
         3        2.0000           -0.6330525             -17.2262
         4        2.0000           -0.6188941             -16.8410
         5        2.0000           -0.5741650             -15.6238
         6        2.0000           -0.5562554             -15.1365
         7        2.0000           -0.5429394             -14.7741
         8        2.0000           -0.5361335             -14.5889
         9        2.0000           -0.5014893             -13.6462
        10        2.0000           -0.4987240             -13.5710
        11        2.0000           -0.4892990             -13.3145
        12        2.0000           -0.4874441             -13.2640
        13        2.0000           -0.4760238             -12.9533
        14        2.0000           -0.3966482             -10.7933
        15        2.0000           -0.3867801             -10.5248 (HOMO)
        16                         -0.2362201              -6.4279 (LUMO)
        17                         -0.0482835              -1.3139
        18                          0.0582215               1.5843
        19                          0.0811691               2.2087
        20                          0.0988185               2.6890
        21                          0.1304592               3.5500
        22                          0.1576544               4.2900
        23                          0.1821036               4.9553
        24                          0.1894565               5.1554
        25                          0.2183283               5.9410
        26                          0.2895371               7.8787
        27                          0.4530008              12.3268
      -------------------------------------------------------------
                  HL-Gap            0.1505600 Eh            4.0969 eV
             Fermi-level           -0.3115001 Eh           -8.4763 eV

     #   Z          covCN         q      C6AA      α(0)
     1   6 C        3.676    -0.038    21.488     6.642
     2   7 N        2.722    -0.092    23.040     7.129
     3   6 C        3.677    -0.047    21.652     6.666
     4   6 C        2.696     0.216    23.434     7.923
     5   8 O        0.856    -0.415    21.987     6.287
     6   1 H        0.922     0.051     2.308     2.376
     7   1 H        0.922     0.064     2.153     2.295
     8   1 H        0.922     0.064     2.153     2.295
     9   1 H        0.922     0.051     2.303     2.373
    10   1 H        0.922     0.060     2.200     2.319
    11   1 H        0.922     0.051     2.303     2.373
    12   1 H        0.925     0.035     2.517     2.481

 Mol. C6AA /au·bohr⁶  :       1162.396397
 Mol. C8AA /au·bohr⁸  :      24321.131096
 Mol. α(0) /au        :         51.159013


Wiberg/Mayer (AO) data.
largest (>0.10) Wiberg bond orders for each atom

 ---------------------------------------------------------------------------
     #   Z sym  total        # sym  WBO       # sym  WBO       # sym  WBO
 ---------------------------------------------------------------------------
     1   6 C    3.967 --     2 N    1.000     6 H    0.982     7 H    0.975
                             8 H    0.975
     2   7 N    3.477 --     4 C    1.233     3 C    1.005     1 C    1.000
                             5 O    0.216
     3   6 C    3.974 --     2 N    1.005    10 H    0.981     9 H    0.978
                            11 H    0.978
     4   6 C    3.953 --     5 O    1.722     2 N    1.233    12 H    0.946
     5   8 O    2.007 --     4 C    1.722     2 N    0.216
     6   1 H    0.997 --     1 C    0.982
     7   1 H    0.996 --     1 C    0.975
     8   1 H    0.996 --     1 C    0.975
     9   1 H    0.997 --     3 C    0.978
    10   1 H    0.996 --     3 C    0.981
    11   1 H    0.997 --     3 C    0.978
    12   1 H    0.999 --     4 C    0.946
 ---------------------------------------------------------------------------

Topologies differ in total number of bonds
Writing topology from bond orders to xtbtopo.mol

molecular dipole:
                 x           y           z       tot (Debye)
 q only:       -0.560      -1.503       0.077
   full:       -0.778      -1.631       0.101       4.599
molecular quadrupole (traceless):
                xx          xy          yy          xz          yz          zz
 q only:        4.469      -4.008      -6.344      -0.206       0.518       1.875
  q+dip:        4.260      -6.132      -7.003      -0.066       0.753       2.743
   full:        4.325      -5.797      -7.419      -0.042       0.730       3.094


           -------------------------------------------------
          | TOTAL ENERGY              -16.964258137829 Eh   |
          | GRADIENT NORM               0.119173393915 Eh/α |
          | HOMO-LUMO GAP               4.096946301468 eV   |
           -------------------------------------------------
########################################################################
[WARNING] Runtime exception occurred
-2- restart_readRestart: Dimension missmatch in restart file.
-1- restart_readRestart: Number of electron missmatch in restart file.
########################################################################

------------------------------------------------------------------------
 unit  open   action     filename
  129 false : read       dft_tmp\361.xyz
  129 false : read       dft_tmp\361.xyz
  129 false : read       dft_tmp\361.xyz
  129 false : read       C:\Users\nkapa\Downloads\xtb-6.7.1pre-windows-x86_64\xtb-6.7.1\share\xtb\param_gfn2-xtb.txt
  129 false : read       xtbrestart
  129 false : replaced   charges
  129 false : replaced   wbo
  129 false : replaced   xtbtopo.mol
  129 false : replaced   xtbrestart

------------------------------------------------------------------------
 * finished run on 2025/06/23 at 11:32:19.537     
------------------------------------------------------------------------
 total:
 * wall-time:     0 d,  0 h,  0 min,  0.045 sec
 *  cpu-time:     0 d,  0 h,  0 min,  0.234 sec
 * ratio c/w:     5.208 speedup
 SCF:
 * wall-time:     0 d,  0 h,  0 min,  0.009 sec
 *  cpu-time:     0 d,  0 h,  0 min,  0.047 sec
 * ratio c/w:     5.208 speedup

normal termination of xtb
