      -----------------------------------------------------------      
     |                   =====================                   |     
     |                           x T B                           |     
     |                   =====================                   |     
     |                         S. Grimme                         |     
     |          Mulliken Center for Theoretical Chemistry        |     
     |                    University of Bonn                     |     
      -----------------------------------------------------------      

   * xtb version 6.7.1pre (5071a88) compiled by 'Marcel@Raven' on 2024-07-23

   xtb is free software: you can redistribute it and/or modify it under
   the terms of the GNU Lesser General Public License as published by
   the Free Software Foundation, either version 3 of the License, or
   (at your option) any later version.
   
   xtb is distributed in the hope that it will be useful,
   but WITHOUT ANY WARRANTY; without even the implied warranty of
   MERCHANTABILITY or FITNESS FOR A PARTICULAR PURPOSE.  See the
   GNU Lesser General Public License for more details.
   
   Cite this work as:
   * C. Bannwarth, E. Caldeweyher, S. Ehlert, A. Hansen, P. Pracht,
     J. Seibert, S. Spicher, S. Grimme, WIREs Comput. Mol. Sci., 2020, 11,
     e01493. DOI: 10.1002/wcms.1493
   
   for GFN2-xTB:
   * C. Bannwarth, S. Ehlert and S. Grimme., J. Chem. Theory Comput., 2019,
     15, 1652-1671. DOI: 10.1021/acs.jctc.8b01176
   for GFN1-xTB:
   * S. Grimme, C. Bannwarth, P. Shushkov, J. Chem. Theory Comput., 2017,
     13, 1989-2009. DOI: 10.1021/acs.jctc.7b00118
   for GFN0-xTB:
   * P. Pracht, E. Caldeweyher, S. Ehlert, S. Grimme, ChemRxiv, 2019, preprint.
     DOI: 10.26434/chemrxiv.8326202.v1
   for GFN-FF:
   * S. Spicher and S. Grimme, Angew. Chem. Int. Ed., 2020, 59, 15665-15673.
     DOI: 10.1002/anie.202004239
   
   for ALPB and GBSA implicit solvation:
   * S. Ehlert, M. Stahn, S. Spicher, S. Grimme, J. Chem. Theory Comput.,
     2021, 17, 4250-4261. DOI: 10.1021/acs.jctc.1c00471
   
   for ddCOSMO and CPCM-X implicit solvation:
   * M. Stahn, S. Ehlert, S. Grimme, J. Phys. Chem. A,
     2023, XX, XXXX-XXXX. DOI: 10.1021/acs.jpca.3c04382
   
   for DFT-D4:
   * E. Caldeweyher, C. Bannwarth and S. Grimme, J. Chem. Phys., 2017,
     147, 034112. DOI: 10.1063/1.4993215
   * E. Caldeweyher, S. Ehlert, A. Hansen, H. Neugebauer, S. Spicher,
     C. Bannwarth and S. Grimme, J. Chem. Phys., 2019, 150, 154122.
     DOI: 10.1063/1.5090222
   * E. Caldeweyher, J.-M. Mewes, S. Ehlert and S. Grimme, Phys. Chem. Chem. Phys.
     2020, 22, 8499-8512. DOI: 10.1039/D0CP00502A
   
   for sTDA-xTB:
   * S. Grimme and C. Bannwarth, J. Chem. Phys., 2016, 145, 054103.
     DOI: 10.1063/1.4959605
   
   in the mass-spec context:
   * V. Asgeirsson, C. Bauer and S. Grimme, Chem. Sci., 2017, 8, 4879.
     DOI: 10.1039/c7sc00601b
   * J. Koopman and S. Grimme, ACS Omega 2019, 4, 12, 15120-15133.
     DOI: 10.1021/acsomega.9b02011
   
   for metadynamics refer to:
   * S. Grimme, J. Chem. Theory Comput., 2019, 155, 2847-2862
     DOI: 10.1021/acs.jctc.9b00143
   
   for SPH calculations refer to:
   * S. Spicher and S. Grimme, J. Chem. Theory Comput., 2021, 17, 1701-1714
     DOI: 10.1021/acs.jctc.0c01306
   
   for ONIOM refer to:
   * C. Plett, A. Katbashev, S. Ehlert, S. Grimme, M. Bursch,
     Phys. Chem. Chem. Phys., 2023, 25, 17860-17868. DOI: 10.1039/D3CP02178E
   
   for DIPRO refer to:
   * J. Kohn, N. Gildemeister, S. Grimme, D. Fazzi, A. Hansen,
     J. Chem. Phys., 2023, just accepted.
   
   for PTB refer to:
   * S. Grimme, M. Mueller, A. Hansen, J. Chem. Phys., 2023, 158, 124111.
     DOI: 10.1063/5.0137838
   
   with help from (in alphabetical order)
   P. Atkinson, C. Bannwarth, F. Bohle, G. Brandenburg, E. Caldeweyher
   M. Checinski, S. Dohm, S. Ehlert, S. Ehrlich, I. Gerasimov, C. Hölzer
   A. Katbashev, J. Kohn, J. Koopman, C. Lavigne, S. Lehtola, F. März, M. Müller,
   F. Musil, H. Neugebauer, J. Pisarek, C. Plett, P. Pracht, F. Pultar,
   J. Seibert, P. Shushkov, S. Spicher, M. Stahn, M. Steiner, T. Strunk,
   J. Stückrath, T. Rose, and J. Unsleber
   
 * started run on 2025/06/23 at 11:32:20.901     
$$$$$$$$$$$$$$$$$$$$$$$$$$$$$$$$$$$$$$$$$$$$$$$$$$$$$$$$$$$$$$$$$$$$$$$$
 CONSTRAINTS & SCANS: DEBUG SECTION
$$$$$$$$$$$$$$$$$$$$$$$$$$$$$$$$$$$$$$$$$$$$$$$$$$$$$$$$$$$$$$$$$$$$$$$$
   ID    Z sym.   atoms
    1    6 C      1-3
    2    8 O      4
    3    1 H      5-12
$$$$$$$$$$$$$$$$$$$$$$$$$$$$$$$$$$$$$$$$$$$$$$$$$$$$$$$$$$$$$$$$$$$$$$$$

           -------------------------------------------------
          |                Calculation Setup                |
           -------------------------------------------------

          program call               : C:\Users\nkapa\Downloads\xtb-6.7.1pre-windows-x86_64\xtb-6.7.1\bin\xtb.EXE dft_tmp\375.xyz --gfn2 --parallel 8 --verbose
          coordinate file            : dft_tmp\375.xyz
          xtbhome directory          : C:\Users\nkapa\AppData\Roaming\SPB_Data
          path for xtb               : C:\Users\nkapa\Downloads\xtb-6.7.1pre-windows-x86_64\xtb-6.7.1\share\xtb
          xcontrol input file        : dft_tmp\375.xyz
          omp threads                :                     8


           -------------------------------------------------
          |                 G F N 2 - x T B                 |
           -------------------------------------------------

        Reference                      10.1021/acs.jctc.8b01176
      * Hamiltonian:
        H0-scaling (s, p, d)           1.850000    2.230000    2.230000
        zeta-weighting                 0.500000
      * Dispersion:
        s8                             2.700000
        a1                             0.520000
        a2                             5.000000
        s9                             5.000000
      * Repulsion:
        kExp                           1.500000    1.000000
        rExp                           1.000000
      * Coulomb:
        alpha                          2.000000
        third order                    shell-resolved
        anisotropic                    true
        a3                             3.000000
        a5                             4.000000
        cn-shift                       1.200000
        cn-exp                         4.000000
        max-rad                        5.000000


          ...................................................
          :                      SETUP                      :
          :.................................................:
          :  # basis functions                  24          :
          :  # atomic orbitals                  24          :
          :  # shells                           16          :
          :  # electrons                        26          :
          :  max. iterations                   250          :
          :  Hamiltonian                  GFN2-xTB          :
          :  restarted?                      false          :
          :  GBSA solvation                  false          :
          :  PC potential                    false          :
          :  electronic temp.          300.0000000     K    :
          :  accuracy                    1.0000000          :
          :  -> integral cutoff          0.2500000E+02      :
          :  -> integral neglect         0.1000000E-07      :
          :  -> SCF convergence          0.1000000E-05 Eh   :
          :  -> wf. convergence          0.1000000E-03 e    :
          :  Broyden damping             0.4000000          :
          :  net charge                          0          :
          :  unpaired electrons                  0          :
          ...................................................

 iter      E             dE          RMSdq      gap      omega  full diag
   1    -14.6779882 -0.146780E+02  0.334E+00   12.53       0.0  T
   2    -14.7066167 -0.286285E-01  0.181E+00   12.30       1.0  T
   3    -14.7071917 -0.574934E-03  0.780E-01   12.36       1.0  T
   4    -14.7075128 -0.321172E-03  0.154E-01   12.33       1.0  T
   5    -14.7075777 -0.648949E-04  0.704E-02   12.35       1.0  T
   6    -14.7075787 -0.967287E-06  0.922E-03   12.36       3.1  T
   7    -14.7075788 -0.103488E-06  0.337E-03   12.36       8.6  T
   8    -14.7075788 -0.189186E-07  0.158E-03   12.36      18.3  T
   9    -14.7075788 -0.365647E-08  0.172E-04   12.36     168.2  T
  10    -14.7075788 -0.485514E-10  0.365E-05   12.36     791.9  T

   *** convergence criteria satisfied after 10 iterations ***

         #    Occupation            Energy/Eh            Energy/eV
      -------------------------------------------------------------
         1        2.0000           -0.6826769             -18.5766
       ...           ...                  ...                  ...
         7        2.0000           -0.5071585             -13.8005
         8        2.0000           -0.4896530             -13.3241
         9        2.0000           -0.4713321             -12.8256
        10        2.0000           -0.4596158             -12.5068
        11        2.0000           -0.4543171             -12.3626
        12        2.0000           -0.4332649             -11.7897
        13        2.0000           -0.4078178             -11.0973 (HOMO)
        14                          0.0464524               1.2640 (LUMO)
        15                          0.0812229               2.2102
        16                          0.0988047               2.6886
        17                          0.1170370               3.1847
        18                          0.1286900               3.5018
       ...                                ...                  ...
        24                          0.2492451               6.7823
      -------------------------------------------------------------
                  HL-Gap            0.4542702 Eh           12.3613 eV
             Fermi-level           -0.1806827 Eh           -4.9166 eV

 SCC (total)                   0 d,  0 h,  0 min,  0.013 sec
 SCC setup                      ...        0 min,  0.000 sec (  0.000%)
 Dispersion                     ...        0 min,  0.000 sec (  0.000%)
 classical contributions        ...        0 min,  0.001 sec (  7.694%)
 integral evaluation            ...        0 min,  0.000 sec (  0.000%)
 iterations                     ...        0 min,  0.006 sec ( 46.152%)
 molecular gradient             ...        0 min,  0.006 sec ( 46.154%)
 printout                       ...        0 min,  0.000 sec (  0.000%)

         :::::::::::::::::::::::::::::::::::::::::::::::::::::
         ::                     SUMMARY                     ::
         :::::::::::::::::::::::::::::::::::::::::::::::::::::
         :: total energy             -14.560739990080 Eh    ::
         :: gradient norm              0.049501894820 Eh/a0 ::
         :: HOMO-LUMO gap             12.361321332624 eV    ::
         ::.................................................::
         :: HOMO orbital eigv.       -11.097285897259 eV    ::
         :: LUMO orbital eigv.         1.264035435365 eV    ::
         ::.................................................::
         :: SCC energy               -14.707575338627 Eh    ::
         :: -> isotropic ES            0.027010931380 Eh    ::
         :: -> anisotropic ES          0.003977235823 Eh    ::
         :: -> anisotropic XC          0.005074353708 Eh    ::
         :: -> dispersion             -0.004958618760 Eh    ::
         :: repulsion energy           0.146835348546 Eh    ::
         :: add. restraining           0.000000000000 Eh    ::
         :: total charge              -0.000000000000 e     ::
         ::.................................................::
         :: atomisation energy         2.778446681199 Eh    ::
         :::::::::::::::::::::::::::::::::::::::::::::::::::::

           -------------------------------------------------
          |                Property Printout                |
           -------------------------------------------------

    * Orbital Energies and Occupations

         #    Occupation            Energy/Eh            Energy/eV
      -------------------------------------------------------------
         1        2.0000           -0.6826769             -18.5766
         2        2.0000           -0.6273380             -17.0707
         3        2.0000           -0.5958091             -16.2128
         4        2.0000           -0.5885091             -16.0141
         5        2.0000           -0.5391706             -14.6716
         6        2.0000           -0.5284340             -14.3794
         7        2.0000           -0.5071585             -13.8005
         8        2.0000           -0.4896530             -13.3241
         9        2.0000           -0.4713321             -12.8256
        10        2.0000           -0.4596158             -12.5068
        11        2.0000           -0.4543171             -12.3626
        12        2.0000           -0.4332649             -11.7897
        13        2.0000           -0.4078178             -11.0973 (HOMO)
        14                          0.0464524               1.2640 (LUMO)
        15                          0.0812229               2.2102
        16                          0.0988047               2.6886
        17                          0.1170370               3.1847
        18                          0.1286900               3.5018
        19                          0.1542075               4.1962
        20                          0.1591732               4.3313
        21                          0.1879189               5.1135
        22                          0.2242702               6.1027
        23                          0.2387553               6.4969
        24                          0.2492451               6.7823
      -------------------------------------------------------------
                  HL-Gap            0.4542702 Eh           12.3613 eV
             Fermi-level           -0.1806827 Eh           -4.9166 eV

     #   Z          covCN         q      C6AA      α(0)
     1   6 C        3.742    -0.115    22.779     6.809
     2   6 C        3.721     0.120    18.720     6.179
     3   6 C        3.742    -0.115    22.779     6.809
     4   8 O        1.652    -0.442    21.681     6.286
     5   1 H        0.922     0.045     2.382     2.414
     6   1 H        0.921     0.033     2.541     2.493
     7   1 H        0.921     0.035     2.513     2.479
     8   1 H        0.921     0.039     2.468     2.457
     9   1 H        0.922     0.045     2.382     2.414
    10   1 H        0.921     0.035     2.513     2.479
    11   1 H        0.921     0.033     2.541     2.493
    12   1 H        0.801     0.285     0.768     1.377

 Mol. C6AA /au·bohr⁶  :        920.953002
 Mol. C8AA /au·bohr⁸  :      18653.073902
 Mol. α(0) /au        :         44.688519


Wiberg/Mayer (AO) data.
largest (>0.10) Wiberg bond orders for each atom

 ---------------------------------------------------------------------------
     #   Z sym  total        # sym  WBO       # sym  WBO       # sym  WBO
 ---------------------------------------------------------------------------
     1   6 C    3.996 --     2 C    0.999     7 H    0.986     5 H    0.986
                             6 H    0.985
     2   6 C    3.957 --     1 C    0.999     3 C    0.999     4 O    0.994
                             8 H    0.962
     3   6 C    3.996 --     2 C    0.999    10 H    0.986     9 H    0.986
                            11 H    0.985
     4   8 O    1.966 --     2 C    0.994    12 H    0.898
     5   1 H    0.998 --     1 C    0.986
     6   1 H    0.999 --     1 C    0.985
     7   1 H    0.999 --     1 C    0.986
     8   1 H    0.999 --     2 C    0.962
     9   1 H    0.998 --     3 C    0.986
    10   1 H    0.999 --     3 C    0.986
    11   1 H    0.999 --     3 C    0.985
    12   1 H    0.919 --     4 O    0.898
 ---------------------------------------------------------------------------

Topologies differ in total number of bonds
Writing topology from bond orders to xtbtopo.mol

molecular dipole:
                 x           y           z       tot (Debye)
 q only:       -0.035      -0.389       0.410
   full:       -0.057      -0.515       0.586       1.988
molecular quadrupole (traceless):
                xx          xy          yy          xz          yz          zz
 q only:        0.853      -0.293      -1.709      -0.530       2.838       0.856
  q+dip:        0.937      -0.344      -3.098      -1.059       3.969       2.161
   full:        0.884      -0.413      -2.740      -0.995       3.966       1.856


           -------------------------------------------------
          | TOTAL ENERGY              -14.560739990080 Eh   |
          | GRADIENT NORM               0.049501894820 Eh/α |
          | HOMO-LUMO GAP              12.361321332624 eV   |
           -------------------------------------------------
########################################################################
[WARNING] Runtime exception occurred
-2- restart_readRestart: Dimension missmatch in restart file.
-1- restart_readRestart: Number of electron missmatch in restart file.
########################################################################

------------------------------------------------------------------------
 unit  open   action     filename
  129 false : read       dft_tmp\375.xyz
  129 false : read       dft_tmp\375.xyz
  129 false : read       dft_tmp\375.xyz
  129 false : read       C:\Users\nkapa\Downloads\xtb-6.7.1pre-windows-x86_64\xtb-6.7.1\share\xtb\param_gfn2-xtb.txt
  129 false : read       xtbrestart
  129 false : replaced   charges
  129 false : replaced   wbo
  129 false : replaced   xtbtopo.mol
  129 false : replaced   xtbrestart

------------------------------------------------------------------------
 * finished run on 2025/06/23 at 11:32:20.964     
------------------------------------------------------------------------
 total:
 * wall-time:     0 d,  0 h,  0 min,  0.061 sec
 *  cpu-time:     0 d,  0 h,  0 min,  0.328 sec
 * ratio c/w:     5.379 speedup
 SCF:
 * wall-time:     0 d,  0 h,  0 min,  0.014 sec
 *  cpu-time:     0 d,  0 h,  0 min,  0.000 sec
 * ratio c/w:     0.000 speedup

normal termination of xtb
