      -----------------------------------------------------------      
     |                   =====================                   |     
     |                           x T B                           |     
     |                   =====================                   |     
     |                         S. Grimme                         |     
     |          Mulliken Center for Theoretical Chemistry        |     
     |                    University of Bonn                     |     
      -----------------------------------------------------------      

   * xtb version 6.7.1pre (5071a88) compiled by 'Marcel@Raven' on 2024-07-23

   xtb is free software: you can redistribute it and/or modify it under
   the terms of the GNU Lesser General Public License as published by
   the Free Software Foundation, either version 3 of the License, or
   (at your option) any later version.
   
   xtb is distributed in the hope that it will be useful,
   but WITHOUT ANY WARRANTY; without even the implied warranty of
   MERCHANTABILITY or FITNESS FOR A PARTICULAR PURPOSE.  See the
   GNU Lesser General Public License for more details.
   
   Cite this work as:
   * C. Bannwarth, E. Caldeweyher, S. Ehlert, A. Hansen, P. Pracht,
     J. Seibert, S. Spicher, S. Grimme, WIREs Comput. Mol. Sci., 2020, 11,
     e01493. DOI: 10.1002/wcms.1493
   
   for GFN2-xTB:
   * C. Bannwarth, S. Ehlert and S. Grimme., J. Chem. Theory Comput., 2019,
     15, 1652-1671. DOI: 10.1021/acs.jctc.8b01176
   for GFN1-xTB:
   * S. Grimme, C. Bannwarth, P. Shushkov, J. Chem. Theory Comput., 2017,
     13, 1989-2009. DOI: 10.1021/acs.jctc.7b00118
   for GFN0-xTB:
   * P. Pracht, E. Caldeweyher, S. Ehlert, S. Grimme, ChemRxiv, 2019, preprint.
     DOI: 10.26434/chemrxiv.8326202.v1
   for GFN-FF:
   * S. Spicher and S. Grimme, Angew. Chem. Int. Ed., 2020, 59, 15665-15673.
     DOI: 10.1002/anie.202004239
   
   for ALPB and GBSA implicit solvation:
   * S. Ehlert, M. Stahn, S. Spicher, S. Grimme, J. Chem. Theory Comput.,
     2021, 17, 4250-4261. DOI: 10.1021/acs.jctc.1c00471
   
   for ddCOSMO and CPCM-X implicit solvation:
   * M. Stahn, S. Ehlert, S. Grimme, J. Phys. Chem. A,
     2023, XX, XXXX-XXXX. DOI: 10.1021/acs.jpca.3c04382
   
   for DFT-D4:
   * E. Caldeweyher, C. Bannwarth and S. Grimme, J. Chem. Phys., 2017,
     147, 034112. DOI: 10.1063/1.4993215
   * E. Caldeweyher, S. Ehlert, A. Hansen, H. Neugebauer, S. Spicher,
     C. Bannwarth and S. Grimme, J. Chem. Phys., 2019, 150, 154122.
     DOI: 10.1063/1.5090222
   * E. Caldeweyher, J.-M. Mewes, S. Ehlert and S. Grimme, Phys. Chem. Chem. Phys.
     2020, 22, 8499-8512. DOI: 10.1039/D0CP00502A
   
   for sTDA-xTB:
   * S. Grimme and C. Bannwarth, J. Chem. Phys., 2016, 145, 054103.
     DOI: 10.1063/1.4959605
   
   in the mass-spec context:
   * V. Asgeirsson, C. Bauer and S. Grimme, Chem. Sci., 2017, 8, 4879.
     DOI: 10.1039/c7sc00601b
   * J. Koopman and S. Grimme, ACS Omega 2019, 4, 12, 15120-15133.
     DOI: 10.1021/acsomega.9b02011
   
   for metadynamics refer to:
   * S. Grimme, J. Chem. Theory Comput., 2019, 155, 2847-2862
     DOI: 10.1021/acs.jctc.9b00143
   
   for SPH calculations refer to:
   * S. Spicher and S. Grimme, J. Chem. Theory Comput., 2021, 17, 1701-1714
     DOI: 10.1021/acs.jctc.0c01306
   
   for ONIOM refer to:
   * C. Plett, A. Katbashev, S. Ehlert, S. Grimme, M. Bursch,
     Phys. Chem. Chem. Phys., 2023, 25, 17860-17868. DOI: 10.1039/D3CP02178E
   
   for DIPRO refer to:
   * J. Kohn, N. Gildemeister, S. Grimme, D. Fazzi, A. Hansen,
     J. Chem. Phys., 2023, just accepted.
   
   for PTB refer to:
   * S. Grimme, M. Mueller, A. Hansen, J. Chem. Phys., 2023, 158, 124111.
     DOI: 10.1063/5.0137838
   
   with help from (in alphabetical order)
   P. Atkinson, C. Bannwarth, F. Bohle, G. Brandenburg, E. Caldeweyher
   M. Checinski, S. Dohm, S. Ehlert, S. Ehrlich, I. Gerasimov, C. Hölzer
   A. Katbashev, J. Kohn, J. Koopman, C. Lavigne, S. Lehtola, F. März, M. Müller,
   F. Musil, H. Neugebauer, J. Pisarek, C. Plett, P. Pracht, F. Pultar,
   J. Seibert, P. Shushkov, S. Spicher, M. Stahn, M. Steiner, T. Strunk,
   J. Stückrath, T. Rose, and J. Unsleber
   
 * started run on 2025/06/23 at 11:32:22.577     
$$$$$$$$$$$$$$$$$$$$$$$$$$$$$$$$$$$$$$$$$$$$$$$$$$$$$$$$$$$$$$$$$$$$$$$$
 CONSTRAINTS & SCANS: DEBUG SECTION
$$$$$$$$$$$$$$$$$$$$$$$$$$$$$$$$$$$$$$$$$$$$$$$$$$$$$$$$$$$$$$$$$$$$$$$$
   ID    Z sym.   atoms
    1    6 C      1, 2, 4-6, 8
    2    8 O      3, 7, 9
    3    1 H      10-15
$$$$$$$$$$$$$$$$$$$$$$$$$$$$$$$$$$$$$$$$$$$$$$$$$$$$$$$$$$$$$$$$$$$$$$$$

           -------------------------------------------------
          |                Calculation Setup                |
           -------------------------------------------------

          program call               : C:\Users\nkapa\Downloads\xtb-6.7.1pre-windows-x86_64\xtb-6.7.1\bin\xtb.EXE dft_tmp\392.xyz --gfn2 --parallel 8 --verbose
          coordinate file            : dft_tmp\392.xyz
          xtbhome directory          : C:\Users\nkapa\AppData\Roaming\SPB_Data
          path for xtb               : C:\Users\nkapa\Downloads\xtb-6.7.1pre-windows-x86_64\xtb-6.7.1\share\xtb
          xcontrol input file        : dft_tmp\392.xyz
          omp threads                :                     8


           -------------------------------------------------
          |                 G F N 2 - x T B                 |
           -------------------------------------------------

        Reference                      10.1021/acs.jctc.8b01176
      * Hamiltonian:
        H0-scaling (s, p, d)           1.850000    2.230000    2.230000
        zeta-weighting                 0.500000
      * Dispersion:
        s8                             2.700000
        a1                             0.520000
        a2                             5.000000
        s9                             5.000000
      * Repulsion:
        kExp                           1.500000    1.000000
        rExp                           1.000000
      * Coulomb:
        alpha                          2.000000
        third order                    shell-resolved
        anisotropic                    true
        a3                             3.000000
        a5                             4.000000
        cn-shift                       1.200000
        cn-exp                         4.000000
        max-rad                        5.000000


          ...................................................
          :                      SETUP                      :
          :.................................................:
          :  # basis functions                  42          :
          :  # atomic orbitals                  42          :
          :  # shells                           24          :
          :  # electrons                        48          :
          :  max. iterations                   250          :
          :  Hamiltonian                  GFN2-xTB          :
          :  restarted?                      false          :
          :  GBSA solvation                  false          :
          :  PC potential                    false          :
          :  electronic temp.          300.0000000     K    :
          :  accuracy                    1.0000000          :
          :  -> integral cutoff          0.2500000E+02      :
          :  -> integral neglect         0.1000000E-07      :
          :  -> SCF convergence          0.1000000E-05 Eh   :
          :  -> wf. convergence          0.1000000E-03 e    :
          :  Broyden damping             0.4000000          :
          :  net charge                          0          :
          :  unpaired electrons                  0          :
          ...................................................

 iter      E             dE          RMSdq      gap      omega  full diag
   1    -28.3131620 -0.283132E+02  0.494E+00    3.21       0.0  T
   2    -28.3453567 -0.321947E-01  0.270E+00    2.70       1.0  T
   3    -28.3437245  0.163223E-02  0.159E+00    3.15       1.0  T
   4    -28.3533340 -0.960948E-02  0.219E-01    2.89       1.0  T
   5    -28.3535639 -0.229927E-03  0.102E-01    2.92       1.0  T
   6    -28.3536098 -0.458655E-04  0.537E-02    2.92       1.0  T
   7    -28.3536243 -0.144970E-04  0.216E-02    2.91       1.2  T
   8    -28.3536250 -0.784513E-06  0.656E-03    2.91       3.9  T
   9    -28.3536254 -0.314845E-06  0.230E-03    2.91      11.2  T
  10    -28.3536254 -0.144789E-07  0.109E-03    2.91      23.6  T
  11    -28.3536254 -0.282867E-08  0.412E-04    2.91      62.6  T
  12    -28.3536254 -0.113711E-08  0.151E-04    2.91     171.2  T

   *** convergence criteria satisfied after 12 iterations ***

         #    Occupation            Energy/Eh            Energy/eV
      -------------------------------------------------------------
         1        2.0000           -0.7730934             -21.0369
       ...           ...                  ...                  ...
        18        2.0000           -0.5056836             -13.7604
        19        2.0000           -0.4888560             -13.3024
        20        2.0000           -0.4690874             -12.7645
        21        2.0000           -0.4564272             -12.4200
        22        2.0000           -0.4401153             -11.9761
        23        2.0000           -0.4168587             -11.3433
        24        2.0000           -0.4079075             -11.0997 (HOMO)
        25                         -0.3008626              -8.1869 (LUMO)
        26                         -0.2130799              -5.7982
        27                         -0.1670101              -4.5446
        28                          0.0213716               0.5816
        29                          0.0441799               1.2022
       ...                                ...                  ...
        42                          0.6656379              18.1129
      -------------------------------------------------------------
                  HL-Gap            0.1070449 Eh            2.9128 eV
             Fermi-level           -0.3543850 Eh           -9.6433 eV

 SCC (total)                   0 d,  0 h,  0 min,  0.015 sec
 SCC setup                      ...        0 min,  0.000 sec (  0.000%)
 Dispersion                     ...        0 min,  0.001 sec (  6.666%)
 classical contributions        ...        0 min,  0.000 sec (  0.000%)
 integral evaluation            ...        0 min,  0.001 sec (  6.666%)
 iterations                     ...        0 min,  0.011 sec ( 73.335%)
 molecular gradient             ...        0 min,  0.002 sec ( 13.332%)
 printout                       ...        0 min,  0.000 sec (  0.000%)

         :::::::::::::::::::::::::::::::::::::::::::::::::::::
         ::                     SUMMARY                     ::
         :::::::::::::::::::::::::::::::::::::::::::::::::::::
         :: total energy             -28.049965358739 Eh    ::
         :: gradient norm              0.127837753697 Eh/a0 ::
         :: HOMO-LUMO gap              2.912838932319 eV    ::
         ::.................................................::
         :: HOMO orbital eigv.       -11.099727131791 eV    ::
         :: LUMO orbital eigv.        -8.186888199472 eV    ::
         ::.................................................::
         :: SCC energy               -28.353613433969 Eh    ::
         :: -> isotropic ES            0.053649037749 Eh    ::
         :: -> anisotropic ES          0.004737700891 Eh    ::
         :: -> anisotropic XC          0.002032562019 Eh    ::
         :: -> dispersion             -0.010417392232 Eh    ::
         :: repulsion energy           0.303648075230 Eh    ::
         :: add. restraining           0.000000000000 Eh    ::
         :: total charge               0.000000000000 e     ::
         ::.................................................::
         :: atomisation energy         4.654413576637 Eh    ::
         :::::::::::::::::::::::::::::::::::::::::::::::::::::

           -------------------------------------------------
          |                Property Printout                |
           -------------------------------------------------

    * Orbital Energies and Occupations

         #    Occupation            Energy/Eh            Energy/eV
      -------------------------------------------------------------
         1        2.0000           -0.7730934             -21.0369
       ...           ...                  ...                  ...
        12        2.0000           -0.5719126             -15.5625
        13        2.0000           -0.5504445             -14.9784
        14        2.0000           -0.5429092             -14.7733
        15        2.0000           -0.5322151             -14.4823
        16        2.0000           -0.5189309             -14.1208
        17        2.0000           -0.5075925             -13.8123
        18        2.0000           -0.5056836             -13.7604
        19        2.0000           -0.4888560             -13.3024
        20        2.0000           -0.4690874             -12.7645
        21        2.0000           -0.4564272             -12.4200
        22        2.0000           -0.4401153             -11.9761
        23        2.0000           -0.4168587             -11.3433
        24        2.0000           -0.4079075             -11.0997 (HOMO)
        25                         -0.3008626              -8.1869 (LUMO)
        26                         -0.2130799              -5.7982
        27                         -0.1670101              -4.5446
        28                          0.0213716               0.5816
        29                          0.0441799               1.2022
        30                          0.0780798               2.1247
        31                          0.1049497               2.8558
        32                          0.1233897               3.3576
        33                          0.1358423               3.6965
        34                          0.1616826               4.3996
        35                          0.1709468               4.6517
       ...                                ...                  ...
        42                          0.6656379              18.1129
      -------------------------------------------------------------
                  HL-Gap            0.1070449 Eh            2.9128 eV
             Fermi-level           -0.3543850 Eh           -9.6433 eV

     #   Z          covCN         q      C6AA      α(0)
     1   6 C        3.044    -0.072    29.744     8.945
     2   6 C        3.199     0.112    25.028     8.153
     3   8 O        1.737    -0.112    16.000     5.401
     4   6 C        3.203     0.098    25.287     8.193
     5   6 C        3.043    -0.059    29.421     8.896
     6   6 C        2.762     0.176    24.208     8.058
     7   8 O        0.856    -0.347    20.649     6.092
     8   6 C        3.672     0.073    19.594     6.344
     9   8 O        1.652    -0.417    21.182     6.213
    10   1 H        0.925     0.045     2.380     2.413
    11   1 H        0.925     0.051     2.308     2.376
    12   1 H        0.925     0.049     2.338     2.391
    13   1 H        0.921     0.036     2.506     2.476
    14   1 H        0.922     0.072     2.066     2.248
    15   1 H        0.801     0.296     0.735     1.347

 Mol. C6AA /au·bohr⁶  :       2674.356333
 Mol. C8AA /au·bohr⁸  :      62751.367774
 Mol. α(0) /au        :         79.545528


Wiberg/Mayer (AO) data.
largest (>0.10) Wiberg bond orders for each atom

 ---------------------------------------------------------------------------
     #   Z sym  total        # sym  WBO       # sym  WBO       # sym  WBO
 ---------------------------------------------------------------------------
     1   6 C    3.983 --     2 C    1.473     5 C    1.397    10 H    0.974
     2   6 C    3.917 --     1 C    1.473     3 O    1.185     8 C    0.997
                             4 C    0.126
     3   8 O    2.525 --     2 C    1.185     4 C    1.136
     4   6 C    3.913 --     5 C    1.431     3 O    1.136     6 C    1.109
                             2 C    0.126
     5   6 C    3.987 --     4 C    1.431     1 C    1.397    11 H    0.973
     6   6 C    3.944 --     7 O    1.809     4 C    1.109    12 H    0.946
     7   8 O    2.034 --     6 C    1.809
     8   6 C    3.960 --     9 O    0.999     2 C    0.997    13 H    0.966
                            14 H    0.963
     9   8 O    1.973 --     8 C    0.999    15 H    0.899
    10   1 H    0.998 --     1 C    0.974
    11   1 H    0.997 --     5 C    0.973
    12   1 H    0.997 --     6 C    0.946
    13   1 H    0.997 --     8 C    0.966
    14   1 H    0.995 --     8 C    0.963
    15   1 H    0.913 --     9 O    0.899
 ---------------------------------------------------------------------------

Topologies differ in total number of bonds
Writing topology from bond orders to xtbtopo.mol

molecular dipole:
                 x           y           z       tot (Debye)
 q only:       -0.721      -1.447      -1.014
   full:       -0.661      -1.802      -1.263       5.841
molecular quadrupole (traceless):
                xx          xy          yy          xz          yz          zz
 q only:        1.753      -5.400      -1.387      -0.915      -4.887      -0.366
  q+dip:        2.689      -6.251      -0.631       0.269      -4.972      -2.059
   full:        1.749      -5.875      -1.388      -0.277      -6.487      -0.361


           -------------------------------------------------
          | TOTAL ENERGY              -28.049965358739 Eh   |
          | GRADIENT NORM               0.127837753697 Eh/α |
          | HOMO-LUMO GAP               2.912838932319 eV   |
           -------------------------------------------------
########################################################################
[WARNING] Runtime exception occurred
-2- restart_readRestart: Dimension missmatch in restart file.
-1- restart_readRestart: Number of electron missmatch in restart file.
########################################################################

------------------------------------------------------------------------
 unit  open   action     filename
  129 false : read       dft_tmp\392.xyz
  129 false : read       dft_tmp\392.xyz
  129 false : read       dft_tmp\392.xyz
  129 false : read       C:\Users\nkapa\Downloads\xtb-6.7.1pre-windows-x86_64\xtb-6.7.1\share\xtb\param_gfn2-xtb.txt
  129 false : read       xtbrestart
  129 false : replaced   charges
  129 false : replaced   wbo
  129 false : replaced   xtbtopo.mol
  129 false : replaced   xtbrestart

------------------------------------------------------------------------
 * finished run on 2025/06/23 at 11:32:22.631     
------------------------------------------------------------------------
 total:
 * wall-time:     0 d,  0 h,  0 min,  0.052 sec
 *  cpu-time:     0 d,  0 h,  0 min,  0.359 sec
 * ratio c/w:     6.911 speedup
 SCF:
 * wall-time:     0 d,  0 h,  0 min,  0.016 sec
 *  cpu-time:     0 d,  0 h,  0 min,  0.125 sec
 * ratio c/w:     7.812 speedup

normal termination of xtb
