17

C 0.677814 -1.283754 0.648851
C 0.983903 0.032102 0.358283
O -0.103542 0.686849 0.021936
C -1.117818 -0.144879 0.082408
C -0.685677 -1.396729 0.476577
C -2.534078 0.240494 -0.203321
O -3.206576 0.521337 0.993011
C 2.348972 0.634967 0.379863
O 2.981545 0.391219 -0.844100
H 1.363241 -2.065181 0.949431
H -1.289238 -2.283112 0.620797
H -2.558715 1.122647 -0.881966
H -3.048446 -0.598771 -0.717140
H -2.892519 1.414664 1.292310
H 2.939930 0.187775 1.209929
H 2.262186 1.730820 0.550031
H 3.879018 0.809554 -0.777227
