      -----------------------------------------------------------      
     |                   =====================                   |     
     |                           x T B                           |     
     |                   =====================                   |     
     |                         S. Grimme                         |     
     |          Mulliken Center for Theoretical Chemistry        |     
     |                    University of Bonn                     |     
      -----------------------------------------------------------      

   * xtb version 6.7.1pre (5071a88) compiled by 'Marcel@Raven' on 2024-07-23

   xtb is free software: you can redistribute it and/or modify it under
   the terms of the GNU Lesser General Public License as published by
   the Free Software Foundation, either version 3 of the License, or
   (at your option) any later version.
   
   xtb is distributed in the hope that it will be useful,
   but WITHOUT ANY WARRANTY; without even the implied warranty of
   MERCHANTABILITY or FITNESS FOR A PARTICULAR PURPOSE.  See the
   GNU Lesser General Public License for more details.
   
   Cite this work as:
   * C. Bannwarth, E. Caldeweyher, S. Ehlert, A. Hansen, P. Pracht,
     J. Seibert, S. Spicher, S. Grimme, WIREs Comput. Mol. Sci., 2020, 11,
     e01493. DOI: 10.1002/wcms.1493
   
   for GFN2-xTB:
   * C. Bannwarth, S. Ehlert and S. Grimme., J. Chem. Theory Comput., 2019,
     15, 1652-1671. DOI: 10.1021/acs.jctc.8b01176
   for GFN1-xTB:
   * S. Grimme, C. Bannwarth, P. Shushkov, J. Chem. Theory Comput., 2017,
     13, 1989-2009. DOI: 10.1021/acs.jctc.7b00118
   for GFN0-xTB:
   * P. Pracht, E. Caldeweyher, S. Ehlert, S. Grimme, ChemRxiv, 2019, preprint.
     DOI: 10.26434/chemrxiv.8326202.v1
   for GFN-FF:
   * S. Spicher and S. Grimme, Angew. Chem. Int. Ed., 2020, 59, 15665-15673.
     DOI: 10.1002/anie.202004239
   
   for ALPB and GBSA implicit solvation:
   * S. Ehlert, M. Stahn, S. Spicher, S. Grimme, J. Chem. Theory Comput.,
     2021, 17, 4250-4261. DOI: 10.1021/acs.jctc.1c00471
   
   for ddCOSMO and CPCM-X implicit solvation:
   * M. Stahn, S. Ehlert, S. Grimme, J. Phys. Chem. A,
     2023, XX, XXXX-XXXX. DOI: 10.1021/acs.jpca.3c04382
   
   for DFT-D4:
   * E. Caldeweyher, C. Bannwarth and S. Grimme, J. Chem. Phys., 2017,
     147, 034112. DOI: 10.1063/1.4993215
   * E. Caldeweyher, S. Ehlert, A. Hansen, H. Neugebauer, S. Spicher,
     C. Bannwarth and S. Grimme, J. Chem. Phys., 2019, 150, 154122.
     DOI: 10.1063/1.5090222
   * E. Caldeweyher, J.-M. Mewes, S. Ehlert and S. Grimme, Phys. Chem. Chem. Phys.
     2020, 22, 8499-8512. DOI: 10.1039/D0CP00502A
   
   for sTDA-xTB:
   * S. Grimme and C. Bannwarth, J. Chem. Phys., 2016, 145, 054103.
     DOI: 10.1063/1.4959605
   
   in the mass-spec context:
   * V. Asgeirsson, C. Bauer and S. Grimme, Chem. Sci., 2017, 8, 4879.
     DOI: 10.1039/c7sc00601b
   * J. Koopman and S. Grimme, ACS Omega 2019, 4, 12, 15120-15133.
     DOI: 10.1021/acsomega.9b02011
   
   for metadynamics refer to:
   * S. Grimme, J. Chem. Theory Comput., 2019, 155, 2847-2862
     DOI: 10.1021/acs.jctc.9b00143
   
   for SPH calculations refer to:
   * S. Spicher and S. Grimme, J. Chem. Theory Comput., 2021, 17, 1701-1714
     DOI: 10.1021/acs.jctc.0c01306
   
   for ONIOM refer to:
   * C. Plett, A. Katbashev, S. Ehlert, S. Grimme, M. Bursch,
     Phys. Chem. Chem. Phys., 2023, 25, 17860-17868. DOI: 10.1039/D3CP02178E
   
   for DIPRO refer to:
   * J. Kohn, N. Gildemeister, S. Grimme, D. Fazzi, A. Hansen,
     J. Chem. Phys., 2023, just accepted.
   
   for PTB refer to:
   * S. Grimme, M. Mueller, A. Hansen, J. Chem. Phys., 2023, 158, 124111.
     DOI: 10.1063/5.0137838
   
   with help from (in alphabetical order)
   P. Atkinson, C. Bannwarth, F. Bohle, G. Brandenburg, E. Caldeweyher
   M. Checinski, S. Dohm, S. Ehlert, S. Ehrlich, I. Gerasimov, C. Hölzer
   A. Katbashev, J. Kohn, J. Koopman, C. Lavigne, S. Lehtola, F. März, M. Müller,
   F. Musil, H. Neugebauer, J. Pisarek, C. Plett, P. Pracht, F. Pultar,
   J. Seibert, P. Shushkov, S. Spicher, M. Stahn, M. Steiner, T. Strunk,
   J. Stückrath, T. Rose, and J. Unsleber
   
 * started run on 2025/06/23 at 11:32:22.913     
$$$$$$$$$$$$$$$$$$$$$$$$$$$$$$$$$$$$$$$$$$$$$$$$$$$$$$$$$$$$$$$$$$$$$$$$
 CONSTRAINTS & SCANS: DEBUG SECTION
$$$$$$$$$$$$$$$$$$$$$$$$$$$$$$$$$$$$$$$$$$$$$$$$$$$$$$$$$$$$$$$$$$$$$$$$
   ID    Z sym.   atoms
    1    6 C      1, 2, 4
    2   16 S      3
    3    7 N      5
    4    1 H      6-8
$$$$$$$$$$$$$$$$$$$$$$$$$$$$$$$$$$$$$$$$$$$$$$$$$$$$$$$$$$$$$$$$$$$$$$$$

           -------------------------------------------------
          |                Calculation Setup                |
           -------------------------------------------------

          program call               : C:\Users\nkapa\Downloads\xtb-6.7.1pre-windows-x86_64\xtb-6.7.1\bin\xtb.EXE dft_tmp\395.xyz --gfn2 --parallel 8 --verbose
          coordinate file            : dft_tmp\395.xyz
          xtbhome directory          : C:\Users\nkapa\AppData\Roaming\SPB_Data
          path for xtb               : C:\Users\nkapa\Downloads\xtb-6.7.1pre-windows-x86_64\xtb-6.7.1\share\xtb
          xcontrol input file        : dft_tmp\395.xyz
          omp threads                :                     8


           -------------------------------------------------
          |                 G F N 2 - x T B                 |
           -------------------------------------------------

        Reference                      10.1021/acs.jctc.8b01176
      * Hamiltonian:
        H0-scaling (s, p, d)           1.850000    2.230000    2.230000
        zeta-weighting                 0.500000
      * Dispersion:
        s8                             2.700000
        a1                             0.520000
        a2                             5.000000
        s9                             5.000000
      * Repulsion:
        kExp                           1.500000    1.000000
        rExp                           1.000000
      * Coulomb:
        alpha                          2.000000
        third order                    shell-resolved
        anisotropic                    true
        a3                             3.000000
        a5                             4.000000
        cn-shift                       1.200000
        cn-exp                         4.000000
        max-rad                        5.000000


          ...................................................
          :                      SETUP                      :
          :.................................................:
          :  # basis functions                  29          :
          :  # atomic orbitals                  28          :
          :  # shells                           14          :
          :  # electrons                        26          :
          :  max. iterations                   250          :
          :  Hamiltonian                  GFN2-xTB          :
          :  restarted?                      false          :
          :  GBSA solvation                  false          :
          :  PC potential                    false          :
          :  electronic temp.          300.0000000     K    :
          :  accuracy                    1.0000000          :
          :  -> integral cutoff          0.2500000E+02      :
          :  -> integral neglect         0.1000000E-07      :
          :  -> SCF convergence          0.1000000E-05 Eh   :
          :  -> wf. convergence          0.1000000E-03 e    :
          :  Broyden damping             0.4000000          :
          :  net charge                          0          :
          :  unpaired electrons                  0          :
          ...................................................

 iter      E             dE          RMSdq      gap      omega  full diag
   1    -14.2517929 -0.142518E+02  0.438E+00    3.66       0.0  T
   2    -14.2574497 -0.565681E-02  0.262E+00    3.62       1.0  T
   3    -14.2522131  0.523658E-02  0.127E+00    3.56       1.0  T
   4    -14.2591134 -0.690023E-02  0.421E-01    3.39       1.0  T
   5    -14.2597626 -0.649215E-03  0.159E-01    3.41       1.0  T
   6    -14.2598667 -0.104133E-03  0.681E-02    3.43       1.0  T
   7    -14.2598879 -0.211382E-04  0.174E-02    3.41       2.0  T
   8    -14.2598879 -0.828330E-07  0.868E-03    3.42       4.1  T
   9    -14.2598880 -0.257109E-07  0.201E-03    3.42      17.6  T
  10    -14.2598880 -0.123236E-08  0.756E-04    3.42      46.8  T
  11    -14.2598880 -0.264516E-09  0.289E-04    3.42     122.3  T

   *** convergence criteria satisfied after 11 iterations ***

         #    Occupation            Energy/Eh            Energy/eV
      -------------------------------------------------------------
         1        2.0000           -0.7498428             -20.4043
       ...           ...                  ...                  ...
         7        2.0000           -0.5110347             -13.9060
         8        2.0000           -0.4954747             -13.4826
         9        2.0000           -0.4928470             -13.4110
        10        2.0000           -0.4664814             -12.6936
        11        2.0000           -0.4294693             -11.6865
        12        2.0000           -0.4082827             -11.1099
        13        2.0000           -0.3917902             -10.6612 (HOMO)
        14                         -0.2662115              -7.2440 (LUMO)
        15                         -0.2039195              -5.5489
        16                         -0.1974016              -5.3716
        17                         -0.1315105              -3.5786
        18                         -0.0140825              -0.3832
       ...                                ...                  ...
        28                          0.6876823              18.7128
      -------------------------------------------------------------
                  HL-Gap            0.1255787 Eh            3.4172 eV
             Fermi-level           -0.3290009 Eh           -8.9526 eV

 SCC (total)                   0 d,  0 h,  0 min,  0.009 sec
 SCC setup                      ...        0 min,  0.001 sec ( 11.110%)
 Dispersion                     ...        0 min,  0.000 sec (  0.000%)
 classical contributions        ...        0 min,  0.000 sec (  0.000%)
 integral evaluation            ...        0 min,  0.001 sec ( 11.113%)
 iterations                     ...        0 min,  0.006 sec ( 66.664%)
 molecular gradient             ...        0 min,  0.001 sec ( 11.113%)
 printout                       ...        0 min,  0.000 sec (  0.000%)

         :::::::::::::::::::::::::::::::::::::::::::::::::::::
         ::                     SUMMARY                     ::
         :::::::::::::::::::::::::::::::::::::::::::::::::::::
         :: total energy             -14.089027740059 Eh    ::
         :: gradient norm              0.098034703484 Eh/a0 ::
         :: HOMO-LUMO gap              3.417169026333 eV    ::
         ::.................................................::
         :: HOMO orbital eigv.       -10.661153615106 eV    ::
         :: LUMO orbital eigv.        -7.243984588773 eV    ::
         ::.................................................::
         :: SCC energy               -14.259887092141 Eh    ::
         :: -> isotropic ES            0.008396988496 Eh    ::
         :: -> anisotropic ES          0.002774303184 Eh    ::
         :: -> anisotropic XC          0.011220544522 Eh    ::
         :: -> dispersion             -0.005535382987 Eh    ::
         :: repulsion energy           0.170859352083 Eh    ::
         :: add. restraining           0.000000000000 Eh    ::
         :: total charge               0.000000000000 e     ::
         ::.................................................::
         :: atomisation energy         2.364621910889 Eh    ::
         :::::::::::::::::::::::::::::::::::::::::::::::::::::

           -------------------------------------------------
          |                Property Printout                |
           -------------------------------------------------

    * Orbital Energies and Occupations

         #    Occupation            Energy/Eh            Energy/eV
      -------------------------------------------------------------
         1        2.0000           -0.7498428             -20.4043
         2        2.0000           -0.6580958             -17.9077
         3        2.0000           -0.6266887             -17.0531
         4        2.0000           -0.5871160             -15.9762
         5        2.0000           -0.5670261             -15.4296
         6        2.0000           -0.5363227             -14.5941
         7        2.0000           -0.5110347             -13.9060
         8        2.0000           -0.4954747             -13.4826
         9        2.0000           -0.4928470             -13.4110
        10        2.0000           -0.4664814             -12.6936
        11        2.0000           -0.4294693             -11.6865
        12        2.0000           -0.4082827             -11.1099
        13        2.0000           -0.3917902             -10.6612 (HOMO)
        14                         -0.2662115              -7.2440 (LUMO)
        15                         -0.2039195              -5.5489
        16                         -0.1974016              -5.3716
        17                         -0.1315105              -3.5786
        18                         -0.0140825              -0.3832
        19                          0.0164083               0.4465
        20                          0.0275018               0.7484
        21                          0.0926446               2.5210
        22                          0.1516875               4.1276
        23                          0.1964210               5.3449
        24                          0.3102153               8.4414
       ...                                ...                  ...
        28                          0.6876823              18.7128
      -------------------------------------------------------------
                  HL-Gap            0.1255787 Eh            3.4172 eV
             Fermi-level           -0.3290009 Eh           -8.9526 eV

     #   Z          covCN         q      C6AA      α(0)
     1   6 C        3.189     0.035    26.755     8.438
     2   6 C        2.907    -0.035    28.871     8.811
     3  16 S        2.401     0.024   140.071    19.919
     4   6 C        2.909     0.059    26.672     8.468
     5   7 N        2.006    -0.235    26.940     7.698
     6   1 H        0.925     0.044     2.402     2.423
     7   1 H        0.925     0.049     2.330     2.387
     8   1 H        0.926     0.059     2.209     2.324

 Mol. C6AA /au·bohr⁶  :       1387.619268
 Mol. C8AA /au·bohr⁸  :      42978.026422
 Mol. α(0) /au        :         60.468853


Wiberg/Mayer (AO) data.
largest (>0.10) Wiberg bond orders for each atom

 ---------------------------------------------------------------------------
     #   Z sym  total        # sym  WBO       # sym  WBO       # sym  WBO
 ---------------------------------------------------------------------------
     1   6 C    3.980 --     2 C    1.565     5 N    1.332     6 H    0.963
     2   6 C    3.946 --     1 C    1.565     3 S    1.245     7 H    0.969
                             4 C    0.127
     3  16 S    2.776 --     4 C    1.264     2 C    1.245     5 N    0.155
     4   6 C    3.954 --     5 N    1.548     3 S    1.264     8 H    0.966
                             2 C    0.127
     5   7 N    3.086 --     4 C    1.548     1 C    1.332     3 S    0.155
     6   1 H    0.998 --     1 C    0.963
     7   1 H    0.998 --     2 C    0.969
     8   1 H    0.996 --     4 C    0.966
 ---------------------------------------------------------------------------

Topologies differ in total number of bonds
Writing topology from bond orders to xtbtopo.mol

molecular dipole:
                 x           y           z       tot (Debye)
 q only:       -0.115       0.423       0.001
   full:       -0.315       0.464      -0.023       1.427
molecular quadrupole (traceless):
                xx          xy          yy          xz          yz          zz
 q only:        2.331       1.216      -1.287       0.433       0.285      -1.044
  q+dip:        5.245       1.545      -4.016       0.768       0.250      -1.229
   full:        4.697       1.648      -4.573       0.563       0.203      -0.124


           -------------------------------------------------
          | TOTAL ENERGY              -14.089027740059 Eh   |
          | GRADIENT NORM               0.098034703484 Eh/α |
          | HOMO-LUMO GAP               3.417169026333 eV   |
           -------------------------------------------------
########################################################################
[WARNING] Runtime exception occurred
-2- restart_readRestart: Dimension missmatch in restart file.
-1- restart_readRestart: Number of electron missmatch in restart file.
########################################################################

------------------------------------------------------------------------
 unit  open   action     filename
  129 false : read       dft_tmp\395.xyz
  129 false : read       dft_tmp\395.xyz
  129 false : read       dft_tmp\395.xyz
  129 false : read       C:\Users\nkapa\Downloads\xtb-6.7.1pre-windows-x86_64\xtb-6.7.1\share\xtb\param_gfn2-xtb.txt
  129 false : read       xtbrestart
  129 false : replaced   charges
  129 false : replaced   wbo
  129 false : replaced   xtbtopo.mol
  129 false : replaced   xtbrestart

------------------------------------------------------------------------
 * finished run on 2025/06/23 at 11:32:22.962     
------------------------------------------------------------------------
 total:
 * wall-time:     0 d,  0 h,  0 min,  0.048 sec
 *  cpu-time:     0 d,  0 h,  0 min,  0.250 sec
 * ratio c/w:     5.208 speedup
 SCF:
 * wall-time:     0 d,  0 h,  0 min,  0.010 sec
 *  cpu-time:     0 d,  0 h,  0 min,  0.000 sec
 * ratio c/w:     0.000 speedup

normal termination of xtb
