      -----------------------------------------------------------      
     |                   =====================                   |     
     |                           x T B                           |     
     |                   =====================                   |     
     |                         S. Grimme                         |     
     |          Mulliken Center for Theoretical Chemistry        |     
     |                    University of Bonn                     |     
      -----------------------------------------------------------      

   * xtb version 6.7.1pre (5071a88) compiled by 'Marcel@Raven' on 2024-07-23

   xtb is free software: you can redistribute it and/or modify it under
   the terms of the GNU Lesser General Public License as published by
   the Free Software Foundation, either version 3 of the License, or
   (at your option) any later version.
   
   xtb is distributed in the hope that it will be useful,
   but WITHOUT ANY WARRANTY; without even the implied warranty of
   MERCHANTABILITY or FITNESS FOR A PARTICULAR PURPOSE.  See the
   GNU Lesser General Public License for more details.
   
   Cite this work as:
   * C. Bannwarth, E. Caldeweyher, S. Ehlert, A. Hansen, P. Pracht,
     J. Seibert, S. Spicher, S. Grimme, WIREs Comput. Mol. Sci., 2020, 11,
     e01493. DOI: 10.1002/wcms.1493
   
   for GFN2-xTB:
   * C. Bannwarth, S. Ehlert and S. Grimme., J. Chem. Theory Comput., 2019,
     15, 1652-1671. DOI: 10.1021/acs.jctc.8b01176
   for GFN1-xTB:
   * S. Grimme, C. Bannwarth, P. Shushkov, J. Chem. Theory Comput., 2017,
     13, 1989-2009. DOI: 10.1021/acs.jctc.7b00118
   for GFN0-xTB:
   * P. Pracht, E. Caldeweyher, S. Ehlert, S. Grimme, ChemRxiv, 2019, preprint.
     DOI: 10.26434/chemrxiv.8326202.v1
   for GFN-FF:
   * S. Spicher and S. Grimme, Angew. Chem. Int. Ed., 2020, 59, 15665-15673.
     DOI: 10.1002/anie.202004239
   
   for ALPB and GBSA implicit solvation:
   * S. Ehlert, M. Stahn, S. Spicher, S. Grimme, J. Chem. Theory Comput.,
     2021, 17, 4250-4261. DOI: 10.1021/acs.jctc.1c00471
   
   for ddCOSMO and CPCM-X implicit solvation:
   * M. Stahn, S. Ehlert, S. Grimme, J. Phys. Chem. A,
     2023, XX, XXXX-XXXX. DOI: 10.1021/acs.jpca.3c04382
   
   for DFT-D4:
   * E. Caldeweyher, C. Bannwarth and S. Grimme, J. Chem. Phys., 2017,
     147, 034112. DOI: 10.1063/1.4993215
   * E. Caldeweyher, S. Ehlert, A. Hansen, H. Neugebauer, S. Spicher,
     C. Bannwarth and S. Grimme, J. Chem. Phys., 2019, 150, 154122.
     DOI: 10.1063/1.5090222
   * E. Caldeweyher, J.-M. Mewes, S. Ehlert and S. Grimme, Phys. Chem. Chem. Phys.
     2020, 22, 8499-8512. DOI: 10.1039/D0CP00502A
   
   for sTDA-xTB:
   * S. Grimme and C. Bannwarth, J. Chem. Phys., 2016, 145, 054103.
     DOI: 10.1063/1.4959605
   
   in the mass-spec context:
   * V. Asgeirsson, C. Bauer and S. Grimme, Chem. Sci., 2017, 8, 4879.
     DOI: 10.1039/c7sc00601b
   * J. Koopman and S. Grimme, ACS Omega 2019, 4, 12, 15120-15133.
     DOI: 10.1021/acsomega.9b02011
   
   for metadynamics refer to:
   * S. Grimme, J. Chem. Theory Comput., 2019, 155, 2847-2862
     DOI: 10.1021/acs.jctc.9b00143
   
   for SPH calculations refer to:
   * S. Spicher and S. Grimme, J. Chem. Theory Comput., 2021, 17, 1701-1714
     DOI: 10.1021/acs.jctc.0c01306
   
   for ONIOM refer to:
   * C. Plett, A. Katbashev, S. Ehlert, S. Grimme, M. Bursch,
     Phys. Chem. Chem. Phys., 2023, 25, 17860-17868. DOI: 10.1039/D3CP02178E
   
   for DIPRO refer to:
   * J. Kohn, N. Gildemeister, S. Grimme, D. Fazzi, A. Hansen,
     J. Chem. Phys., 2023, just accepted.
   
   for PTB refer to:
   * S. Grimme, M. Mueller, A. Hansen, J. Chem. Phys., 2023, 158, 124111.
     DOI: 10.1063/5.0137838
   
   with help from (in alphabetical order)
   P. Atkinson, C. Bannwarth, F. Bohle, G. Brandenburg, E. Caldeweyher
   M. Checinski, S. Dohm, S. Ehlert, S. Ehrlich, I. Gerasimov, C. Hölzer
   A. Katbashev, J. Kohn, J. Koopman, C. Lavigne, S. Lehtola, F. März, M. Müller,
   F. Musil, H. Neugebauer, J. Pisarek, C. Plett, P. Pracht, F. Pultar,
   J. Seibert, P. Shushkov, S. Spicher, M. Stahn, M. Steiner, T. Strunk,
   J. Stückrath, T. Rose, and J. Unsleber
   
 * started run on 2025/06/23 at 11:31:34.487     
$$$$$$$$$$$$$$$$$$$$$$$$$$$$$$$$$$$$$$$$$$$$$$$$$$$$$$$$$$$$$$$$$$$$$$$$
 CONSTRAINTS & SCANS: DEBUG SECTION
$$$$$$$$$$$$$$$$$$$$$$$$$$$$$$$$$$$$$$$$$$$$$$$$$$$$$$$$$$$$$$$$$$$$$$$$
   ID    Z sym.   atoms
    1    6 C      1-5, 7
    2    8 O      6, 8, 9
    3    1 H      10-17
$$$$$$$$$$$$$$$$$$$$$$$$$$$$$$$$$$$$$$$$$$$$$$$$$$$$$$$$$$$$$$$$$$$$$$$$

           -------------------------------------------------
          |                Calculation Setup                |
           -------------------------------------------------

          program call               : C:\Users\nkapa\Downloads\xtb-6.7.1pre-windows-x86_64\xtb-6.7.1\bin\xtb.EXE dft_tmp\41.xyz --gfn2 --parallel 8 --verbose
          coordinate file            : dft_tmp\41.xyz
          xtbhome directory          : C:\Users\nkapa\AppData\Roaming\SPB_Data
          path for xtb               : C:\Users\nkapa\Downloads\xtb-6.7.1pre-windows-x86_64\xtb-6.7.1\share\xtb
          xcontrol input file        : dft_tmp\41.xyz
          omp threads                :                     8


           -------------------------------------------------
          |                 G F N 2 - x T B                 |
           -------------------------------------------------

        Reference                      10.1021/acs.jctc.8b01176
      * Hamiltonian:
        H0-scaling (s, p, d)           1.850000    2.230000    2.230000
        zeta-weighting                 0.500000
      * Dispersion:
        s8                             2.700000
        a1                             0.520000
        a2                             5.000000
        s9                             5.000000
      * Repulsion:
        kExp                           1.500000    1.000000
        rExp                           1.000000
      * Coulomb:
        alpha                          2.000000
        third order                    shell-resolved
        anisotropic                    true
        a3                             3.000000
        a5                             4.000000
        cn-shift                       1.200000
        cn-exp                         4.000000
        max-rad                        5.000000


          ...................................................
          :                      SETUP                      :
          :.................................................:
          :  # basis functions                  44          :
          :  # atomic orbitals                  44          :
          :  # shells                           26          :
          :  # electrons                        50          :
          :  max. iterations                   250          :
          :  Hamiltonian                  GFN2-xTB          :
          :  restarted?                      false          :
          :  GBSA solvation                  false          :
          :  PC potential                    false          :
          :  electronic temp.          300.0000000     K    :
          :  accuracy                    1.0000000          :
          :  -> integral cutoff          0.2500000E+02      :
          :  -> integral neglect         0.1000000E-07      :
          :  -> SCF convergence          0.1000000E-05 Eh   :
          :  -> wf. convergence          0.1000000E-03 e    :
          :  Broyden damping             0.4000000          :
          :  net charge                          0          :
          :  unpaired electrons                  0          :
          ...................................................

 iter      E             dE          RMSdq      gap      omega  full diag
   1    -29.3084414 -0.293084E+02  0.477E+00    3.68       0.0  T
   2    -29.3527885 -0.443471E-01  0.250E+00    3.03       1.0  T
   3    -29.3518351  0.953368E-03  0.147E+00    3.36       1.0  T
   4    -29.3607704 -0.893531E-02  0.171E-01    3.08       1.0  T
   5    -29.3609708 -0.200346E-03  0.686E-02    3.15       1.0  T
   6    -29.3609815 -0.106768E-04  0.291E-02    3.15       1.0  T
   7    -29.3609824 -0.894265E-06  0.101E-02    3.15       2.4  T
   8    -29.3609827 -0.358341E-06  0.277E-03    3.15       8.8  T
   9    -29.3609827 -0.449317E-08  0.878E-04    3.15      27.6  T
  10    -29.3609827 -0.720770E-08  0.284E-04    3.15      85.4  T

   *** convergence criteria satisfied after 10 iterations ***

         #    Occupation            Energy/Eh            Energy/eV
      -------------------------------------------------------------
         1        2.0000           -0.7490847             -20.3836
       ...           ...                  ...                  ...
        19        2.0000           -0.5035446             -13.7021
        20        2.0000           -0.5006291             -13.6228
        21        2.0000           -0.4772520             -12.9867
        22        2.0000           -0.4624822             -12.5848
        23        2.0000           -0.4551087             -12.3841
        24        2.0000           -0.4361254             -11.8676
        25        2.0000           -0.3961841             -10.7807 (HOMO)
        26                         -0.2803193              -7.6279 (LUMO)
        27                         -0.0025455              -0.0693
        28                          0.0103114               0.2806
        29                          0.0351166               0.9556
        30                          0.0413708               1.1258
       ...                                ...                  ...
        44                          0.5527779              15.0419
      -------------------------------------------------------------
                  HL-Gap            0.1158648 Eh            3.1528 eV
             Fermi-level           -0.3382517 Eh           -9.2043 eV

 SCC (total)                   0 d,  0 h,  0 min,  0.014 sec
 SCC setup                      ...        0 min,  0.000 sec (  0.000%)
 Dispersion                     ...        0 min,  0.000 sec (  0.000%)
 classical contributions        ...        0 min,  0.000 sec (  0.000%)
 integral evaluation            ...        0 min,  0.001 sec (  7.142%)
 iterations                     ...        0 min,  0.010 sec ( 71.429%)
 molecular gradient             ...        0 min,  0.003 sec ( 21.429%)
 printout                       ...        0 min,  0.000 sec (  0.000%)

         :::::::::::::::::::::::::::::::::::::::::::::::::::::
         ::                     SUMMARY                     ::
         :::::::::::::::::::::::::::::::::::::::::::::::::::::
         :: total energy             -29.114530370852 Eh    ::
         :: gradient norm              0.076191173936 Eh/a0 ::
         :: HOMO-LUMO gap              3.152840539995 eV    ::
         ::.................................................::
         :: HOMO orbital eigv.       -10.780717625393 eV    ::
         :: LUMO orbital eigv.        -7.627877085397 eV    ::
         ::.................................................::
         :: SCC energy               -29.360946010499 Eh    ::
         :: -> isotropic ES            0.061396058607 Eh    ::
         :: -> anisotropic ES          0.001778226036 Eh    ::
         :: -> anisotropic XC          0.001093702916 Eh    ::
         :: -> dispersion             -0.012883142821 Eh    ::
         :: repulsion energy           0.246415639648 Eh    ::
         :: add. restraining           0.000000000000 Eh    ::
         :: total charge               0.000000000000 e     ::
         ::.................................................::
         :: atomisation energy         4.932013060877 Eh    ::
         :::::::::::::::::::::::::::::::::::::::::::::::::::::

           -------------------------------------------------
          |                Property Printout                |
           -------------------------------------------------

    * Orbital Energies and Occupations

         #    Occupation            Energy/Eh            Energy/eV
      -------------------------------------------------------------
         1        2.0000           -0.7490847             -20.3836
       ...           ...                  ...                  ...
        13        2.0000           -0.5573582             -15.1665
        14        2.0000           -0.5418638             -14.7449
        15        2.0000           -0.5378795             -14.6364
        16        2.0000           -0.5303682             -14.4321
        17        2.0000           -0.5213822             -14.1875
        18        2.0000           -0.5131337             -13.9631
        19        2.0000           -0.5035446             -13.7021
        20        2.0000           -0.5006291             -13.6228
        21        2.0000           -0.4772520             -12.9867
        22        2.0000           -0.4624822             -12.5848
        23        2.0000           -0.4551087             -12.3841
        24        2.0000           -0.4361254             -11.8676
        25        2.0000           -0.3961841             -10.7807 (HOMO)
        26                         -0.2803193              -7.6279 (LUMO)
        27                         -0.0025455              -0.0693
        28                          0.0103114               0.2806
        29                          0.0351166               0.9556
        30                          0.0413708               1.1258
        31                          0.0568288               1.5464
        32                          0.0729878               1.9861
        33                          0.0760374               2.0691
        34                          0.0896313               2.4390
        35                          0.0906574               2.4669
        36                          0.1231514               3.3511
       ...                                ...                  ...
        44                          0.5527779              15.0419
      -------------------------------------------------------------
                  HL-Gap            0.1158648 Eh            3.1528 eV
             Fermi-level           -0.3382517 Eh           -9.2043 eV

     #   Z          covCN         q      C6AA      α(0)
     1   6 C        3.911     0.110    18.732     6.152
     2   6 C        3.791    -0.075    21.951     6.672
     3   6 C        3.793    -0.075    21.941     6.670
     4   6 C        2.812     0.220    23.365     7.920
     5   6 C        3.901     0.232    16.957     5.853
     6   8 O        1.704    -0.311    19.178     5.913
     7   6 C        3.791     0.076    19.323     6.260
     8   8 O        1.708    -0.309    19.142     5.907
     9   8 O        0.857    -0.342    20.551     6.078
    10   1 H        0.921     0.050     2.315     2.380
    11   1 H        0.921     0.055     2.256     2.349
    12   1 H        0.921     0.043     2.416     2.431
    13   1 H        0.921     0.079     1.985     2.204
    14   1 H        0.921     0.082     1.956     2.187
    15   1 H        0.921     0.072     2.062     2.246
    16   1 H        0.921     0.044     2.399     2.422
    17   1 H        0.921     0.048     2.351     2.398

 Mol. C6AA /au·bohr⁶  :       2714.365653
 Mol. C8AA /au·bohr⁸  :      60492.536819
 Mol. α(0) /au        :         76.041522


Wiberg/Mayer (AO) data.
largest (>0.10) Wiberg bond orders for each atom

 ---------------------------------------------------------------------------
     #   Z sym  total        # sym  WBO       # sym  WBO       # sym  WBO
 ---------------------------------------------------------------------------
     1   6 C    3.949 --     2 C    0.983     7 C    0.981     8 O    0.977
                            10 H    0.960
     2   6 C    3.994 --     3 C    1.001     1 C    0.983    12 H    0.978
                            11 H    0.978
     3   6 C    3.995 --     4 C    1.002     2 C    1.001    13 H    0.957
                            14 H    0.940
     4   6 C    3.918 --     9 O    1.874     3 C    1.002     5 C    0.940
     5   6 C    3.924 --     8 O    0.975     6 O    0.961    15 H    0.949
                             4 C    0.940
     6   8 O    2.090 --     7 C    0.980     5 C    0.961
     7   6 C    3.949 --     1 C    0.981     6 O    0.980    16 H    0.968
                            17 H    0.968
     8   8 O    2.102 --     1 C    0.977     5 C    0.975
     9   8 O    2.069 --     4 C    1.874
    10   1 H    0.997 --     1 C    0.960
    11   1 H    0.997 --     2 C    0.978
    12   1 H    0.998 --     2 C    0.978
    13   1 H    0.994 --     3 C    0.957
    14   1 H    0.993 --     3 C    0.940
    15   1 H    0.995 --     5 C    0.949
    16   1 H    0.998 --     7 C    0.968
    17   1 H    0.998 --     7 C    0.968
 ---------------------------------------------------------------------------

Topologies differ in total number of bonds
Writing topology from bond orders to xtbtopo.mol

molecular dipole:
                 x           y           z       tot (Debye)
 q only:        0.283      -1.497      -0.317
   full:        0.256      -1.709      -0.369       4.491
molecular quadrupole (traceless):
                xx          xy          yy          xz          yz          zz
 q only:        2.986      -2.039      -2.029      -0.505      -2.624      -0.957
  q+dip:        5.144      -2.853      -4.194       0.001      -4.038      -0.950
   full:        3.905      -2.647      -3.614      -0.478      -4.030      -0.290


           -------------------------------------------------
          | TOTAL ENERGY              -29.114530370852 Eh   |
          | GRADIENT NORM               0.076191173936 Eh/α |
          | HOMO-LUMO GAP               3.152840539995 eV   |
           -------------------------------------------------
########################################################################
[WARNING] Runtime exception occurred
-2- restart_readRestart: Dimension missmatch in restart file.
-1- restart_readRestart: Number of electron missmatch in restart file.
########################################################################

------------------------------------------------------------------------
 unit  open   action     filename
  129 false : read       dft_tmp\41.xyz
  129 false : read       dft_tmp\41.xyz
  129 false : read       dft_tmp\41.xyz
  129 false : read       C:\Users\nkapa\Downloads\xtb-6.7.1pre-windows-x86_64\xtb-6.7.1\share\xtb\param_gfn2-xtb.txt
  129 false : read       xtbrestart
  129 false : replaced   charges
  129 false : replaced   wbo
  129 false : replaced   xtbtopo.mol
  129 false : replaced   xtbrestart

------------------------------------------------------------------------
 * finished run on 2025/06/23 at 11:31:34.544     
------------------------------------------------------------------------
 total:
 * wall-time:     0 d,  0 h,  0 min,  0.055 sec
 *  cpu-time:     0 d,  0 h,  0 min,  0.359 sec
 * ratio c/w:     6.534 speedup
 SCF:
 * wall-time:     0 d,  0 h,  0 min,  0.015 sec
 *  cpu-time:     0 d,  0 h,  0 min,  0.109 sec
 * ratio c/w:     7.292 speedup

normal termination of xtb
