25

O -2.539733 0.846292 0.948137
C -2.265966 1.150944 -0.392936
C -0.773175 1.443168 -0.587773
N 0.063776 0.316073 -0.110758
C 1.435821 0.793646 0.185169
C 2.227685 -0.231255 1.006803
O 3.452040 0.316753 1.414459
C 0.066839 -0.810160 -1.083515
C -0.334433 -2.111738 -0.389138
O -1.645705 -2.015661 0.092238
H -2.505716 1.703888 1.447187
H -2.579201 0.296491 -1.026765
H -2.863522 2.033321 -0.716408
H -0.556654 2.372615 -0.015087
H -0.565608 1.669926 -1.658107
H 1.983353 1.037721 -0.753383
H 1.392221 1.722797 0.796247
H 2.443292 -1.127519 0.389955
H 1.633410 -0.553580 1.892440
H 3.257814 0.902498 2.192307
H -0.637862 -0.645075 -1.929191
H 1.063490 -0.952819 -1.558367
H -0.267882 -2.945974 -1.122677
H 0.359589 -2.327202 0.451584
H -1.843873 -2.885150 0.527578
