      -----------------------------------------------------------      
     |                   =====================                   |     
     |                           x T B                           |     
     |                   =====================                   |     
     |                         S. Grimme                         |     
     |          Mulliken Center for Theoretical Chemistry        |     
     |                    University of Bonn                     |     
      -----------------------------------------------------------      

   * xtb version 6.7.1pre (5071a88) compiled by 'Marcel@Raven' on 2024-07-23

   xtb is free software: you can redistribute it and/or modify it under
   the terms of the GNU Lesser General Public License as published by
   the Free Software Foundation, either version 3 of the License, or
   (at your option) any later version.
   
   xtb is distributed in the hope that it will be useful,
   but WITHOUT ANY WARRANTY; without even the implied warranty of
   MERCHANTABILITY or FITNESS FOR A PARTICULAR PURPOSE.  See the
   GNU Lesser General Public License for more details.
   
   Cite this work as:
   * C. Bannwarth, E. Caldeweyher, S. Ehlert, A. Hansen, P. Pracht,
     J. Seibert, S. Spicher, S. Grimme, WIREs Comput. Mol. Sci., 2020, 11,
     e01493. DOI: 10.1002/wcms.1493
   
   for GFN2-xTB:
   * C. Bannwarth, S. Ehlert and S. Grimme., J. Chem. Theory Comput., 2019,
     15, 1652-1671. DOI: 10.1021/acs.jctc.8b01176
   for GFN1-xTB:
   * S. Grimme, C. Bannwarth, P. Shushkov, J. Chem. Theory Comput., 2017,
     13, 1989-2009. DOI: 10.1021/acs.jctc.7b00118
   for GFN0-xTB:
   * P. Pracht, E. Caldeweyher, S. Ehlert, S. Grimme, ChemRxiv, 2019, preprint.
     DOI: 10.26434/chemrxiv.8326202.v1
   for GFN-FF:
   * S. Spicher and S. Grimme, Angew. Chem. Int. Ed., 2020, 59, 15665-15673.
     DOI: 10.1002/anie.202004239
   
   for ALPB and GBSA implicit solvation:
   * S. Ehlert, M. Stahn, S. Spicher, S. Grimme, J. Chem. Theory Comput.,
     2021, 17, 4250-4261. DOI: 10.1021/acs.jctc.1c00471
   
   for ddCOSMO and CPCM-X implicit solvation:
   * M. Stahn, S. Ehlert, S. Grimme, J. Phys. Chem. A,
     2023, XX, XXXX-XXXX. DOI: 10.1021/acs.jpca.3c04382
   
   for DFT-D4:
   * E. Caldeweyher, C. Bannwarth and S. Grimme, J. Chem. Phys., 2017,
     147, 034112. DOI: 10.1063/1.4993215
   * E. Caldeweyher, S. Ehlert, A. Hansen, H. Neugebauer, S. Spicher,
     C. Bannwarth and S. Grimme, J. Chem. Phys., 2019, 150, 154122.
     DOI: 10.1063/1.5090222
   * E. Caldeweyher, J.-M. Mewes, S. Ehlert and S. Grimme, Phys. Chem. Chem. Phys.
     2020, 22, 8499-8512. DOI: 10.1039/D0CP00502A
   
   for sTDA-xTB:
   * S. Grimme and C. Bannwarth, J. Chem. Phys., 2016, 145, 054103.
     DOI: 10.1063/1.4959605
   
   in the mass-spec context:
   * V. Asgeirsson, C. Bauer and S. Grimme, Chem. Sci., 2017, 8, 4879.
     DOI: 10.1039/c7sc00601b
   * J. Koopman and S. Grimme, ACS Omega 2019, 4, 12, 15120-15133.
     DOI: 10.1021/acsomega.9b02011
   
   for metadynamics refer to:
   * S. Grimme, J. Chem. Theory Comput., 2019, 155, 2847-2862
     DOI: 10.1021/acs.jctc.9b00143
   
   for SPH calculations refer to:
   * S. Spicher and S. Grimme, J. Chem. Theory Comput., 2021, 17, 1701-1714
     DOI: 10.1021/acs.jctc.0c01306
   
   for ONIOM refer to:
   * C. Plett, A. Katbashev, S. Ehlert, S. Grimme, M. Bursch,
     Phys. Chem. Chem. Phys., 2023, 25, 17860-17868. DOI: 10.1039/D3CP02178E
   
   for DIPRO refer to:
   * J. Kohn, N. Gildemeister, S. Grimme, D. Fazzi, A. Hansen,
     J. Chem. Phys., 2023, just accepted.
   
   for PTB refer to:
   * S. Grimme, M. Mueller, A. Hansen, J. Chem. Phys., 2023, 158, 124111.
     DOI: 10.1063/5.0137838
   
   with help from (in alphabetical order)
   P. Atkinson, C. Bannwarth, F. Bohle, G. Brandenburg, E. Caldeweyher
   M. Checinski, S. Dohm, S. Ehlert, S. Ehrlich, I. Gerasimov, C. Hölzer
   A. Katbashev, J. Kohn, J. Koopman, C. Lavigne, S. Lehtola, F. März, M. Müller,
   F. Musil, H. Neugebauer, J. Pisarek, C. Plett, P. Pracht, F. Pultar,
   J. Seibert, P. Shushkov, S. Spicher, M. Stahn, M. Steiner, T. Strunk,
   J. Stückrath, T. Rose, and J. Unsleber
   
 * started run on 2025/06/23 at 11:32:25.748     
$$$$$$$$$$$$$$$$$$$$$$$$$$$$$$$$$$$$$$$$$$$$$$$$$$$$$$$$$$$$$$$$$$$$$$$$
 CONSTRAINTS & SCANS: DEBUG SECTION
$$$$$$$$$$$$$$$$$$$$$$$$$$$$$$$$$$$$$$$$$$$$$$$$$$$$$$$$$$$$$$$$$$$$$$$$
   ID    Z sym.   atoms
    1    6 C      1, 2
    2    9 F      3, 4
    3    8 O      5
    4    1 H      6-9
$$$$$$$$$$$$$$$$$$$$$$$$$$$$$$$$$$$$$$$$$$$$$$$$$$$$$$$$$$$$$$$$$$$$$$$$

           -------------------------------------------------
          |                Calculation Setup                |
           -------------------------------------------------

          program call               : C:\Users\nkapa\Downloads\xtb-6.7.1pre-windows-x86_64\xtb-6.7.1\bin\xtb.EXE dft_tmp\421.xyz --gfn2 --parallel 8 --verbose
          coordinate file            : dft_tmp\421.xyz
          xtbhome directory          : C:\Users\nkapa\AppData\Roaming\SPB_Data
          path for xtb               : C:\Users\nkapa\Downloads\xtb-6.7.1pre-windows-x86_64\xtb-6.7.1\share\xtb
          xcontrol input file        : dft_tmp\421.xyz
          omp threads                :                     8


           -------------------------------------------------
          |                 G F N 2 - x T B                 |
           -------------------------------------------------

        Reference                      10.1021/acs.jctc.8b01176
      * Hamiltonian:
        H0-scaling (s, p, d)           1.850000    2.230000    2.230000
        zeta-weighting                 0.500000
      * Dispersion:
        s8                             2.700000
        a1                             0.520000
        a2                             5.000000
        s9                             5.000000
      * Repulsion:
        kExp                           1.500000    1.000000
        rExp                           1.000000
      * Coulomb:
        alpha                          2.000000
        third order                    shell-resolved
        anisotropic                    true
        a3                             3.000000
        a5                             4.000000
        cn-shift                       1.200000
        cn-exp                         4.000000
        max-rad                        5.000000


          ...................................................
          :                      SETUP                      :
          :.................................................:
          :  # basis functions                  24          :
          :  # atomic orbitals                  24          :
          :  # shells                           14          :
          :  # electrons                        32          :
          :  max. iterations                   250          :
          :  Hamiltonian                  GFN2-xTB          :
          :  restarted?                      false          :
          :  GBSA solvation                  false          :
          :  PC potential                    false          :
          :  electronic temp.          300.0000000     K    :
          :  accuracy                    1.0000000          :
          :  -> integral cutoff          0.2500000E+02      :
          :  -> integral neglect         0.1000000E-07      :
          :  -> SCF convergence          0.1000000E-05 Eh   :
          :  -> wf. convergence          0.1000000E-03 e    :
          :  Broyden damping             0.4000000          :
          :  net charge                          0          :
          :  unpaired electrons                  0          :
          ...................................................

 iter      E             dE          RMSdq      gap      omega  full diag
   1    -19.8866639 -0.198867E+02  0.477E+00   11.60       0.0  T
   2    -19.9247801 -0.381162E-01  0.250E+00   11.15       1.0  T
   3    -19.9259689 -0.118883E-02  0.113E+00   11.25       1.0  T
   4    -19.9266952 -0.726333E-03  0.163E-01   11.20       1.0  T
   5    -19.9267275 -0.322810E-04  0.733E-02   11.23       1.0  T
   6    -19.9267303 -0.274987E-05  0.218E-02   11.24       1.5  T
   7    -19.9267306 -0.344169E-06  0.423E-03   11.23       7.9  T
   8    -19.9267306 -0.408764E-07  0.166E-03   11.24      20.1  T
   9    -19.9267306 -0.137982E-08  0.303E-04   11.24     110.1  T
  10    -19.9267306 -0.102808E-09  0.602E-05   11.24     553.4  T

   *** convergence criteria satisfied after 10 iterations ***

         #    Occupation            Energy/Eh            Energy/eV
      -------------------------------------------------------------
         1        2.0000           -0.8475145             -23.0620
       ...           ...                  ...                  ...
        10        2.0000           -0.5494646             -14.9517
        11        2.0000           -0.5217329             -14.1971
        12        2.0000           -0.5168193             -14.0634
        13        2.0000           -0.5101371             -13.8815
        14        2.0000           -0.5012646             -13.6401
        15        2.0000           -0.4816695             -13.1069
        16        2.0000           -0.4480565             -12.1922 (HOMO)
        17                         -0.0351334              -0.9560 (LUMO)
        18                         -0.0031949              -0.0869
        19                          0.0498679               1.3570
        20                          0.0656421               1.7862
        21                          0.0794591               2.1622
       ...                                ...                  ...
        24                          0.1936348               5.2691
      -------------------------------------------------------------
                  HL-Gap            0.4129231 Eh           11.2362 eV
             Fermi-level           -0.2415950 Eh           -6.5741 eV

 SCC (total)                   0 d,  0 h,  0 min,  0.007 sec
 SCC setup                      ...        0 min,  0.000 sec (  0.000%)
 Dispersion                     ...        0 min,  0.000 sec (  0.000%)
 classical contributions        ...        0 min,  0.000 sec (  0.000%)
 integral evaluation            ...        0 min,  0.000 sec (  0.000%)
 iterations                     ...        0 min,  0.004 sec ( 57.140%)
 molecular gradient             ...        0 min,  0.001 sec ( 14.284%)
 printout                       ...        0 min,  0.001 sec ( 14.288%)

         :::::::::::::::::::::::::::::::::::::::::::::::::::::
         ::                     SUMMARY                     ::
         :::::::::::::::::::::::::::::::::::::::::::::::::::::
         :: total energy             -19.835587580595 Eh    ::
         :: gradient norm              0.053072182201 Eh/a0 ::
         :: HOMO-LUMO gap             11.236209310911 eV    ::
         ::.................................................::
         :: HOMO orbital eigv.       -12.192238695123 eV    ::
         :: LUMO orbital eigv.        -0.956029384212 eV    ::
         ::.................................................::
         :: SCC energy               -19.926729722882 Eh    ::
         :: -> isotropic ES            0.050131899850 Eh    ::
         :: -> anisotropic ES          0.002321924392 Eh    ::
         :: -> anisotropic XC         -0.009755694061 Eh    ::
         :: -> dispersion             -0.003336129082 Eh    ::
         :: repulsion energy           0.091142142287 Eh    ::
         :: add. restraining           0.000000000000 Eh    ::
         :: total charge               0.000000000000 e     ::
         ::.................................................::
         :: atomisation energy         2.015053156898 Eh    ::
         :::::::::::::::::::::::::::::::::::::::::::::::::::::

           -------------------------------------------------
          |                Property Printout                |
           -------------------------------------------------

    * Orbital Energies and Occupations

         #    Occupation            Energy/Eh            Energy/eV
      -------------------------------------------------------------
         1        2.0000           -0.8475145             -23.0620
       ...           ...                  ...                  ...
         4        2.0000           -0.6783154             -18.4579
         5        2.0000           -0.6424979             -17.4833
         6        2.0000           -0.6077211             -16.5369
         7        2.0000           -0.6023038             -16.3895
         8        2.0000           -0.5924957             -16.1226
         9        2.0000           -0.5760240             -15.6744
        10        2.0000           -0.5494646             -14.9517
        11        2.0000           -0.5217329             -14.1971
        12        2.0000           -0.5168193             -14.0634
        13        2.0000           -0.5101371             -13.8815
        14        2.0000           -0.5012646             -13.6401
        15        2.0000           -0.4816695             -13.1069
        16        2.0000           -0.4480565             -12.1922 (HOMO)
        17                         -0.0351334              -0.9560 (LUMO)
        18                         -0.0031949              -0.0869
        19                          0.0498679               1.3570
        20                          0.0656421               1.7862
        21                          0.0794591               2.1622
        22                          0.1121929               3.0529
        23                          0.1605636               4.3692
        24                          0.1936348               5.2691
      -------------------------------------------------------------
                  HL-Gap            0.4129231 Eh           11.2362 eV
             Fermi-level           -0.2415950 Eh           -6.5741 eV

     #   Z          covCN         q      C6AA      α(0)
     1   6 C        3.670     0.066    19.715     6.365
     2   6 C        3.462     0.287    18.062     6.397
     3   9 F        0.784    -0.213    11.373     3.983
     4   9 F        0.784    -0.228    11.525     4.010
     5   8 O        1.652    -0.411    21.068     6.196
     6   1 H        0.922     0.089     1.893     2.151
     7   1 H        0.921     0.046     2.375     2.410
     8   1 H        0.922     0.067     2.119     2.276
     9   1 H        0.801     0.298     0.727     1.340

 Mol. C6AA /au·bohr⁶  :        631.132754
 Mol. C8AA /au·bohr⁸  :      12749.260052
 Mol. α(0) /au        :         35.129217


Wiberg/Mayer (AO) data.
largest (>0.10) Wiberg bond orders for each atom

 ---------------------------------------------------------------------------
     #   Z sym  total        # sym  WBO       # sym  WBO       # sym  WBO
 ---------------------------------------------------------------------------
     1   6 C    3.958 --     5 O    1.019     2 C    0.971     7 H    0.967
                             6 H    0.963
     2   6 C    3.850 --     1 C    0.971     3 F    0.954     8 H    0.949
                             4 F    0.944
     3   9 F    1.049 --     2 C    0.954
     4   9 F    1.035 --     2 C    0.944
     5   8 O    1.978 --     1 C    1.019     9 H    0.897
     6   1 H    0.992 --     1 C    0.963
     7   1 H    0.998 --     1 C    0.967
     8   1 H    0.996 --     2 C    0.949
     9   1 H    0.911 --     5 O    0.897
 ---------------------------------------------------------------------------

Topologies differ in total number of bonds
Writing topology from bond orders to xtbtopo.mol

molecular dipole:
                 x           y           z       tot (Debye)
 q only:       -0.440       0.290       1.022
   full:       -0.359       0.330       1.337       3.616
molecular quadrupole (traceless):
                xx          xy          yy          xz          yz          zz
 q only:       -1.665       2.879       1.103       0.493       2.899       0.562
  q+dip:       -1.795       4.918       0.253       0.580       5.003       1.541
   full:       -2.006       4.302       0.762       0.504       4.626       1.244


           -------------------------------------------------
          | TOTAL ENERGY              -19.835587580595 Eh   |
          | GRADIENT NORM               0.053072182201 Eh/α |
          | HOMO-LUMO GAP              11.236209310911 eV   |
           -------------------------------------------------
########################################################################
[WARNING] Runtime exception occurred
-2- restart_readRestart: Dimension missmatch in restart file.
-1- restart_readRestart: Number of electron missmatch in restart file.
########################################################################

------------------------------------------------------------------------
 unit  open   action     filename
  129 false : read       dft_tmp\421.xyz
  129 false : read       dft_tmp\421.xyz
  129 false : read       dft_tmp\421.xyz
  129 false : read       C:\Users\nkapa\Downloads\xtb-6.7.1pre-windows-x86_64\xtb-6.7.1\share\xtb\param_gfn2-xtb.txt
  129 false : read       xtbrestart
  129 false : replaced   charges
  129 false : replaced   wbo
  129 false : replaced   xtbtopo.mol
  129 false : replaced   xtbrestart

------------------------------------------------------------------------
 * finished run on 2025/06/23 at 11:32:25.795     
------------------------------------------------------------------------
 total:
 * wall-time:     0 d,  0 h,  0 min,  0.045 sec
 *  cpu-time:     0 d,  0 h,  0 min,  0.250 sec
 * ratio c/w:     5.556 speedup
 SCF:
 * wall-time:     0 d,  0 h,  0 min,  0.007 sec
 *  cpu-time:     0 d,  0 h,  0 min,  0.125 sec
 * ratio c/w:    17.857 speedup

normal termination of xtb
