      -----------------------------------------------------------      
     |                   =====================                   |     
     |                           x T B                           |     
     |                   =====================                   |     
     |                         S. Grimme                         |     
     |          Mulliken Center for Theoretical Chemistry        |     
     |                    University of Bonn                     |     
      -----------------------------------------------------------      

   * xtb version 6.7.1pre (5071a88) compiled by 'Marcel@Raven' on 2024-07-23

   xtb is free software: you can redistribute it and/or modify it under
   the terms of the GNU Lesser General Public License as published by
   the Free Software Foundation, either version 3 of the License, or
   (at your option) any later version.
   
   xtb is distributed in the hope that it will be useful,
   but WITHOUT ANY WARRANTY; without even the implied warranty of
   MERCHANTABILITY or FITNESS FOR A PARTICULAR PURPOSE.  See the
   GNU Lesser General Public License for more details.
   
   Cite this work as:
   * C. Bannwarth, E. Caldeweyher, S. Ehlert, A. Hansen, P. Pracht,
     J. Seibert, S. Spicher, S. Grimme, WIREs Comput. Mol. Sci., 2020, 11,
     e01493. DOI: 10.1002/wcms.1493
   
   for GFN2-xTB:
   * C. Bannwarth, S. Ehlert and S. Grimme., J. Chem. Theory Comput., 2019,
     15, 1652-1671. DOI: 10.1021/acs.jctc.8b01176
   for GFN1-xTB:
   * S. Grimme, C. Bannwarth, P. Shushkov, J. Chem. Theory Comput., 2017,
     13, 1989-2009. DOI: 10.1021/acs.jctc.7b00118
   for GFN0-xTB:
   * P. Pracht, E. Caldeweyher, S. Ehlert, S. Grimme, ChemRxiv, 2019, preprint.
     DOI: 10.26434/chemrxiv.8326202.v1
   for GFN-FF:
   * S. Spicher and S. Grimme, Angew. Chem. Int. Ed., 2020, 59, 15665-15673.
     DOI: 10.1002/anie.202004239
   
   for ALPB and GBSA implicit solvation:
   * S. Ehlert, M. Stahn, S. Spicher, S. Grimme, J. Chem. Theory Comput.,
     2021, 17, 4250-4261. DOI: 10.1021/acs.jctc.1c00471
   
   for ddCOSMO and CPCM-X implicit solvation:
   * M. Stahn, S. Ehlert, S. Grimme, J. Phys. Chem. A,
     2023, XX, XXXX-XXXX. DOI: 10.1021/acs.jpca.3c04382
   
   for DFT-D4:
   * E. Caldeweyher, C. Bannwarth and S. Grimme, J. Chem. Phys., 2017,
     147, 034112. DOI: 10.1063/1.4993215
   * E. Caldeweyher, S. Ehlert, A. Hansen, H. Neugebauer, S. Spicher,
     C. Bannwarth and S. Grimme, J. Chem. Phys., 2019, 150, 154122.
     DOI: 10.1063/1.5090222
   * E. Caldeweyher, J.-M. Mewes, S. Ehlert and S. Grimme, Phys. Chem. Chem. Phys.
     2020, 22, 8499-8512. DOI: 10.1039/D0CP00502A
   
   for sTDA-xTB:
   * S. Grimme and C. Bannwarth, J. Chem. Phys., 2016, 145, 054103.
     DOI: 10.1063/1.4959605
   
   in the mass-spec context:
   * V. Asgeirsson, C. Bauer and S. Grimme, Chem. Sci., 2017, 8, 4879.
     DOI: 10.1039/c7sc00601b
   * J. Koopman and S. Grimme, ACS Omega 2019, 4, 12, 15120-15133.
     DOI: 10.1021/acsomega.9b02011
   
   for metadynamics refer to:
   * S. Grimme, J. Chem. Theory Comput., 2019, 155, 2847-2862
     DOI: 10.1021/acs.jctc.9b00143
   
   for SPH calculations refer to:
   * S. Spicher and S. Grimme, J. Chem. Theory Comput., 2021, 17, 1701-1714
     DOI: 10.1021/acs.jctc.0c01306
   
   for ONIOM refer to:
   * C. Plett, A. Katbashev, S. Ehlert, S. Grimme, M. Bursch,
     Phys. Chem. Chem. Phys., 2023, 25, 17860-17868. DOI: 10.1039/D3CP02178E
   
   for DIPRO refer to:
   * J. Kohn, N. Gildemeister, S. Grimme, D. Fazzi, A. Hansen,
     J. Chem. Phys., 2023, just accepted.
   
   for PTB refer to:
   * S. Grimme, M. Mueller, A. Hansen, J. Chem. Phys., 2023, 158, 124111.
     DOI: 10.1063/5.0137838
   
   with help from (in alphabetical order)
   P. Atkinson, C. Bannwarth, F. Bohle, G. Brandenburg, E. Caldeweyher
   M. Checinski, S. Dohm, S. Ehlert, S. Ehrlich, I. Gerasimov, C. Hölzer
   A. Katbashev, J. Kohn, J. Koopman, C. Lavigne, S. Lehtola, F. März, M. Müller,
   F. Musil, H. Neugebauer, J. Pisarek, C. Plett, P. Pracht, F. Pultar,
   J. Seibert, P. Shushkov, S. Spicher, M. Stahn, M. Steiner, T. Strunk,
   J. Stückrath, T. Rose, and J. Unsleber
   
 * started run on 2025/06/23 at 11:32:27.300     
$$$$$$$$$$$$$$$$$$$$$$$$$$$$$$$$$$$$$$$$$$$$$$$$$$$$$$$$$$$$$$$$$$$$$$$$
 CONSTRAINTS & SCANS: DEBUG SECTION
$$$$$$$$$$$$$$$$$$$$$$$$$$$$$$$$$$$$$$$$$$$$$$$$$$$$$$$$$$$$$$$$$$$$$$$$
   ID    Z sym.   atoms
    1    6 C      1, 3, 4, 6, 7
    2    8 O      2, 5, 8
    3    1 H      9-20
$$$$$$$$$$$$$$$$$$$$$$$$$$$$$$$$$$$$$$$$$$$$$$$$$$$$$$$$$$$$$$$$$$$$$$$$

           -------------------------------------------------
          |                Calculation Setup                |
           -------------------------------------------------

          program call               : C:\Users\nkapa\Downloads\xtb-6.7.1pre-windows-x86_64\xtb-6.7.1\bin\xtb.EXE dft_tmp\434.xyz --gfn2 --parallel 8 --verbose
          coordinate file            : dft_tmp\434.xyz
          xtbhome directory          : C:\Users\nkapa\AppData\Roaming\SPB_Data
          path for xtb               : C:\Users\nkapa\Downloads\xtb-6.7.1pre-windows-x86_64\xtb-6.7.1\share\xtb
          xcontrol input file        : dft_tmp\434.xyz
          omp threads                :                     8


           -------------------------------------------------
          |                 G F N 2 - x T B                 |
           -------------------------------------------------

        Reference                      10.1021/acs.jctc.8b01176
      * Hamiltonian:
        H0-scaling (s, p, d)           1.850000    2.230000    2.230000
        zeta-weighting                 0.500000
      * Dispersion:
        s8                             2.700000
        a1                             0.520000
        a2                             5.000000
        s9                             5.000000
      * Repulsion:
        kExp                           1.500000    1.000000
        rExp                           1.000000
      * Coulomb:
        alpha                          2.000000
        third order                    shell-resolved
        anisotropic                    true
        a3                             3.000000
        a5                             4.000000
        cn-shift                       1.200000
        cn-exp                         4.000000
        max-rad                        5.000000


          ...................................................
          :                      SETUP                      :
          :.................................................:
          :  # basis functions                  44          :
          :  # atomic orbitals                  44          :
          :  # shells                           28          :
          :  # electrons                        50          :
          :  max. iterations                   250          :
          :  Hamiltonian                  GFN2-xTB          :
          :  restarted?                      false          :
          :  GBSA solvation                  false          :
          :  PC potential                    false          :
          :  electronic temp.          300.0000000     K    :
          :  accuracy                    1.0000000          :
          :  -> integral cutoff          0.2500000E+02      :
          :  -> integral neglect         0.1000000E-07      :
          :  -> SCF convergence          0.1000000E-05 Eh   :
          :  -> wf. convergence          0.1000000E-03 e    :
          :  Broyden damping             0.4000000          :
          :  net charge                          0          :
          :  unpaired electrons                  0          :
          ...................................................

 iter      E             dE          RMSdq      gap      omega  full diag
   1    -29.1602372 -0.291602E+02  0.435E+00   10.54       0.0  T
   2    -29.2157548 -0.555176E-01  0.227E+00   10.27       1.0  T
   3    -29.2166259 -0.871116E-03  0.885E-01   10.37       1.0  T
   4    -29.2168724 -0.246436E-03  0.119E-01   10.40       1.0  T
   5    -29.2168757 -0.329828E-05  0.289E-02   10.41       1.0  T
   6    -29.2168822 -0.655582E-05  0.856E-03   10.41       2.6  T
   7    -29.2168824 -0.184140E-06  0.358E-03   10.41       6.2  T
   8    -29.2168825 -0.511304E-07  0.156E-03   10.41      14.4  T
   9    -29.2168825 -0.323678E-08  0.249E-04   10.41      89.9  T
  10    -29.2168825 -0.423615E-09  0.774E-05   10.41     289.0  T

   *** convergence criteria satisfied after 10 iterations ***

         #    Occupation            Energy/Eh            Energy/eV
      -------------------------------------------------------------
         1        2.0000           -0.7071865             -19.2435
       ...           ...                  ...                  ...
        19        2.0000           -0.4782964             -13.0151
        20        2.0000           -0.4662817             -12.6882
        21        2.0000           -0.4489800             -12.2174
        22        2.0000           -0.4470280             -12.1643
        23        2.0000           -0.4425413             -12.0422
        24        2.0000           -0.4155663             -11.3081
        25        2.0000           -0.3925138             -10.6808 (HOMO)
        26                         -0.0099333              -0.2703 (LUMO)
        27                          0.0225084               0.6125
        28                          0.0621945               1.6924
        29                          0.0652162               1.7746
        30                          0.0863691               2.3502
       ...                                ...                  ...
        44                          0.2662248               7.2443
      -------------------------------------------------------------
                  HL-Gap            0.3825804 Eh           10.4105 eV
             Fermi-level           -0.2012236 Eh           -5.4756 eV

 SCC (total)                   0 d,  0 h,  0 min,  0.013 sec
 SCC setup                      ...        0 min,  0.001 sec (  7.694%)
 Dispersion                     ...        0 min,  0.000 sec (  0.000%)
 classical contributions        ...        0 min,  0.000 sec (  0.000%)
 integral evaluation            ...        0 min,  0.001 sec (  7.692%)
 iterations                     ...        0 min,  0.009 sec ( 69.231%)
 molecular gradient             ...        0 min,  0.002 sec ( 15.383%)
 printout                       ...        0 min,  0.000 sec (  0.000%)

         :::::::::::::::::::::::::::::::::::::::::::::::::::::
         ::                     SUMMARY                     ::
         :::::::::::::::::::::::::::::::::::::::::::::::::::::
         :: total energy             -28.986152187228 Eh    ::
         :: gradient norm              0.060594582813 Eh/a0 ::
         :: HOMO-LUMO gap             10.410542736318 eV    ::
         ::.................................................::
         :: HOMO orbital eigv.       -10.680842877803 eV    ::
         :: LUMO orbital eigv.        -0.270300141484 eV    ::
         ::.................................................::
         :: SCC energy               -29.216910174871 Eh    ::
         :: -> isotropic ES            0.058262706473 Eh    ::
         :: -> anisotropic ES          0.004971953891 Eh    ::
         :: -> anisotropic XC          0.002297987035 Eh    ::
         :: -> dispersion             -0.011007518268 Eh    ::
         :: repulsion energy           0.230757987643 Eh    ::
         :: add. restraining           0.000000000000 Eh    ::
         :: total charge               0.000000000000 e     ::
         ::.................................................::
         :: atomisation energy         4.852583286074 Eh    ::
         :::::::::::::::::::::::::::::::::::::::::::::::::::::

           -------------------------------------------------
          |                Property Printout                |
           -------------------------------------------------

    * Orbital Energies and Occupations

         #    Occupation            Energy/Eh            Energy/eV
      -------------------------------------------------------------
         1        2.0000           -0.7071865             -19.2435
       ...           ...                  ...                  ...
        13        2.0000           -0.5458900             -14.8544
        14        2.0000           -0.5398548             -14.6902
        15        2.0000           -0.5252797             -14.2936
        16        2.0000           -0.5146176             -14.0035
        17        2.0000           -0.5001654             -13.6102
        18        2.0000           -0.4872475             -13.2587
        19        2.0000           -0.4782964             -13.0151
        20        2.0000           -0.4662817             -12.6882
        21        2.0000           -0.4489800             -12.2174
        22        2.0000           -0.4470280             -12.1643
        23        2.0000           -0.4425413             -12.0422
        24        2.0000           -0.4155663             -11.3081
        25        2.0000           -0.3925138             -10.6808 (HOMO)
        26                         -0.0099333              -0.2703 (LUMO)
        27                          0.0225084               0.6125
        28                          0.0621945               1.6924
        29                          0.0652162               1.7746
        30                          0.0863691               2.3502
        31                          0.0897589               2.4425
        32                          0.0964711               2.6251
        33                          0.1029478               2.8014
        34                          0.1144437               3.1142
        35                          0.1281515               3.4872
        36                          0.1427241               3.8837
       ...                                ...                  ...
        44                          0.2662248               7.2443
      -------------------------------------------------------------
                  HL-Gap            0.3825804 Eh           10.4105 eV
             Fermi-level           -0.2012236 Eh           -5.4756 eV

     #   Z          covCN         q      C6AA      α(0)
     1   6 C        3.657     0.041    20.166     6.446
     2   8 O        1.700    -0.311    19.190     5.914
     3   6 C        3.710     0.071    19.527     6.315
     4   6 C        3.702     0.072    19.529     6.319
     5   8 O        1.700    -0.318    19.310     5.933
     6   6 C        3.702     0.067    19.613     6.333
     7   6 C        3.668     0.073    19.601     6.348
     8   8 O        1.652    -0.432    21.481     6.257
     9   1 H        0.921     0.031     2.578     2.511
    10   1 H        0.922     0.056     2.249     2.345
    11   1 H        0.921     0.033     2.543     2.494
    12   1 H        0.922     0.044     2.400     2.423
    13   1 H        0.920     0.039     2.460     2.453
    14   1 H        0.922     0.047     2.359     2.402
    15   1 H        0.921     0.035     2.522     2.484
    16   1 H        0.921     0.059     2.216     2.328
    17   1 H        0.921     0.024     2.667     2.554
    18   1 H        0.922     0.061     2.188     2.314
    19   1 H        0.921     0.020     2.737     2.587
    20   1 H        0.801     0.290     0.753     1.364

 Mol. C6AA /au·bohr⁶  :       2863.791772
 Mol. C8AA /au·bohr⁸  :      58461.827857
 Mol. α(0) /au        :         78.122333


Wiberg/Mayer (AO) data.
largest (>0.10) Wiberg bond orders for each atom

 ---------------------------------------------------------------------------
     #   Z sym  total        # sym  WBO       # sym  WBO       # sym  WBO
 ---------------------------------------------------------------------------
     1   6 C    3.950 --     2 O    0.996    10 H    0.980     9 H    0.977
                            11 H    0.977
     2   8 O    2.072 --     1 C    0.996     3 C    0.987
     3   6 C    3.953 --     2 O    0.987     4 C    0.986    12 H    0.967
                            13 H    0.967
     4   6 C    3.952 --     3 C    0.986     5 O    0.985    14 H    0.967
                            15 H    0.967
     5   8 O    2.073 --     4 C    0.985     6 C    0.984
     6   6 C    3.950 --     7 C    0.985     5 O    0.984    16 H    0.968
                            17 H    0.966
     7   6 C    3.956 --     8 O    1.006     6 C    0.985    19 H    0.970
                            18 H    0.969
     8   8 O    1.965 --     7 C    1.006    20 H    0.902
     9   1 H    0.999 --     1 C    0.977
    10   1 H    0.997 --     1 C    0.980
    11   1 H    0.999 --     1 C    0.977
    12   1 H    0.998 --     3 C    0.967
    13   1 H    0.998 --     3 C    0.967
    14   1 H    0.998 --     4 C    0.967
    15   1 H    0.999 --     4 C    0.967
    16   1 H    0.997 --     6 C    0.968
    17   1 H    0.999 --     6 C    0.966
    18   1 H    0.996 --     7 C    0.969
    19   1 H    1.000 --     7 C    0.970
    20   1 H    0.916 --     8 O    0.902
 ---------------------------------------------------------------------------

Topologies differ in total number of bonds
Writing topology from bond orders to xtbtopo.mol

molecular dipole:
                 x           y           z       tot (Debye)
 q only:        0.502      -0.070      -0.201
   full:        0.706      -0.082      -0.321       1.981
molecular quadrupole (traceless):
                xx          xy          yy          xz          yz          zz
 q only:       -3.519      -2.314       2.297       5.737      -0.169       1.222
  q+dip:       -8.938      -0.854       5.092       7.310       0.395       3.845
   full:       -7.590      -1.816       4.282       7.612       0.008       3.309


           -------------------------------------------------
          | TOTAL ENERGY              -28.986152187228 Eh   |
          | GRADIENT NORM               0.060594582813 Eh/α |
          | HOMO-LUMO GAP              10.410542736318 eV   |
           -------------------------------------------------
########################################################################
[WARNING] Runtime exception occurred
-2- restart_readRestart: Dimension missmatch in restart file.
-1- restart_readRestart: Number of electron missmatch in restart file.
########################################################################

------------------------------------------------------------------------
 unit  open   action     filename
  129 false : read       dft_tmp\434.xyz
  129 false : read       dft_tmp\434.xyz
  129 false : read       dft_tmp\434.xyz
  129 false : read       C:\Users\nkapa\Downloads\xtb-6.7.1pre-windows-x86_64\xtb-6.7.1\share\xtb\param_gfn2-xtb.txt
  129 false : read       xtbrestart
  129 false : replaced   charges
  129 false : replaced   wbo
  129 false : replaced   xtbtopo.mol
  129 false : replaced   xtbrestart

------------------------------------------------------------------------
 * finished run on 2025/06/23 at 11:32:27.348     
------------------------------------------------------------------------
 total:
 * wall-time:     0 d,  0 h,  0 min,  0.047 sec
 *  cpu-time:     0 d,  0 h,  0 min,  0.359 sec
 * ratio c/w:     7.646 speedup
 SCF:
 * wall-time:     0 d,  0 h,  0 min,  0.014 sec
 *  cpu-time:     0 d,  0 h,  0 min,  0.125 sec
 * ratio c/w:     8.928 speedup

normal termination of xtb
