18

O -3.062734 -0.684036 0.136671
C -2.352412 0.478261 -0.196038
C -0.926519 0.138907 -0.635067
N -0.181587 -0.470615 0.475743
C 1.244287 -0.618761 0.148738
C 2.021879 0.631208 0.567301
O 3.387737 0.464709 0.299917
H -3.298220 -1.127762 -0.719718
H -2.315855 1.144065 0.692399
H -2.875452 1.028776 -1.010745
H -0.960866 -0.553493 -1.506558
H -0.436328 1.082564 -0.958661
H -0.571700 -1.430701 0.628089
H 1.400050 -0.823851 -0.935185
H 1.658294 -1.486387 0.709943
H 1.659431 1.510856 -0.003522
H 1.861169 0.836649 1.650450
H 3.748826 -0.120389 1.016255
