      -----------------------------------------------------------      
     |                   =====================                   |     
     |                           x T B                           |     
     |                   =====================                   |     
     |                         S. Grimme                         |     
     |          Mulliken Center for Theoretical Chemistry        |     
     |                    University of Bonn                     |     
      -----------------------------------------------------------      

   * xtb version 6.7.1pre (5071a88) compiled by 'Marcel@Raven' on 2024-07-23

   xtb is free software: you can redistribute it and/or modify it under
   the terms of the GNU Lesser General Public License as published by
   the Free Software Foundation, either version 3 of the License, or
   (at your option) any later version.
   
   xtb is distributed in the hope that it will be useful,
   but WITHOUT ANY WARRANTY; without even the implied warranty of
   MERCHANTABILITY or FITNESS FOR A PARTICULAR PURPOSE.  See the
   GNU Lesser General Public License for more details.
   
   Cite this work as:
   * C. Bannwarth, E. Caldeweyher, S. Ehlert, A. Hansen, P. Pracht,
     J. Seibert, S. Spicher, S. Grimme, WIREs Comput. Mol. Sci., 2020, 11,
     e01493. DOI: 10.1002/wcms.1493
   
   for GFN2-xTB:
   * C. Bannwarth, S. Ehlert and S. Grimme., J. Chem. Theory Comput., 2019,
     15, 1652-1671. DOI: 10.1021/acs.jctc.8b01176
   for GFN1-xTB:
   * S. Grimme, C. Bannwarth, P. Shushkov, J. Chem. Theory Comput., 2017,
     13, 1989-2009. DOI: 10.1021/acs.jctc.7b00118
   for GFN0-xTB:
   * P. Pracht, E. Caldeweyher, S. Ehlert, S. Grimme, ChemRxiv, 2019, preprint.
     DOI: 10.26434/chemrxiv.8326202.v1
   for GFN-FF:
   * S. Spicher and S. Grimme, Angew. Chem. Int. Ed., 2020, 59, 15665-15673.
     DOI: 10.1002/anie.202004239
   
   for ALPB and GBSA implicit solvation:
   * S. Ehlert, M. Stahn, S. Spicher, S. Grimme, J. Chem. Theory Comput.,
     2021, 17, 4250-4261. DOI: 10.1021/acs.jctc.1c00471
   
   for ddCOSMO and CPCM-X implicit solvation:
   * M. Stahn, S. Ehlert, S. Grimme, J. Phys. Chem. A,
     2023, XX, XXXX-XXXX. DOI: 10.1021/acs.jpca.3c04382
   
   for DFT-D4:
   * E. Caldeweyher, C. Bannwarth and S. Grimme, J. Chem. Phys., 2017,
     147, 034112. DOI: 10.1063/1.4993215
   * E. Caldeweyher, S. Ehlert, A. Hansen, H. Neugebauer, S. Spicher,
     C. Bannwarth and S. Grimme, J. Chem. Phys., 2019, 150, 154122.
     DOI: 10.1063/1.5090222
   * E. Caldeweyher, J.-M. Mewes, S. Ehlert and S. Grimme, Phys. Chem. Chem. Phys.
     2020, 22, 8499-8512. DOI: 10.1039/D0CP00502A
   
   for sTDA-xTB:
   * S. Grimme and C. Bannwarth, J. Chem. Phys., 2016, 145, 054103.
     DOI: 10.1063/1.4959605
   
   in the mass-spec context:
   * V. Asgeirsson, C. Bauer and S. Grimme, Chem. Sci., 2017, 8, 4879.
     DOI: 10.1039/c7sc00601b
   * J. Koopman and S. Grimme, ACS Omega 2019, 4, 12, 15120-15133.
     DOI: 10.1021/acsomega.9b02011
   
   for metadynamics refer to:
   * S. Grimme, J. Chem. Theory Comput., 2019, 155, 2847-2862
     DOI: 10.1021/acs.jctc.9b00143
   
   for SPH calculations refer to:
   * S. Spicher and S. Grimme, J. Chem. Theory Comput., 2021, 17, 1701-1714
     DOI: 10.1021/acs.jctc.0c01306
   
   for ONIOM refer to:
   * C. Plett, A. Katbashev, S. Ehlert, S. Grimme, M. Bursch,
     Phys. Chem. Chem. Phys., 2023, 25, 17860-17868. DOI: 10.1039/D3CP02178E
   
   for DIPRO refer to:
   * J. Kohn, N. Gildemeister, S. Grimme, D. Fazzi, A. Hansen,
     J. Chem. Phys., 2023, just accepted.
   
   for PTB refer to:
   * S. Grimme, M. Mueller, A. Hansen, J. Chem. Phys., 2023, 158, 124111.
     DOI: 10.1063/5.0137838
   
   with help from (in alphabetical order)
   P. Atkinson, C. Bannwarth, F. Bohle, G. Brandenburg, E. Caldeweyher
   M. Checinski, S. Dohm, S. Ehlert, S. Ehrlich, I. Gerasimov, C. Hölzer
   A. Katbashev, J. Kohn, J. Koopman, C. Lavigne, S. Lehtola, F. März, M. Müller,
   F. Musil, H. Neugebauer, J. Pisarek, C. Plett, P. Pracht, F. Pultar,
   J. Seibert, P. Shushkov, S. Spicher, M. Stahn, M. Steiner, T. Strunk,
   J. Stückrath, T. Rose, and J. Unsleber
   
 * started run on 2025/06/23 at 11:32:31.135     
$$$$$$$$$$$$$$$$$$$$$$$$$$$$$$$$$$$$$$$$$$$$$$$$$$$$$$$$$$$$$$$$$$$$$$$$
 CONSTRAINTS & SCANS: DEBUG SECTION
$$$$$$$$$$$$$$$$$$$$$$$$$$$$$$$$$$$$$$$$$$$$$$$$$$$$$$$$$$$$$$$$$$$$$$$$
   ID    Z sym.   atoms
    1    8 O      1
    2    6 C      2, 3
    3    9 F      4-6
    4    1 H      7-9
$$$$$$$$$$$$$$$$$$$$$$$$$$$$$$$$$$$$$$$$$$$$$$$$$$$$$$$$$$$$$$$$$$$$$$$$

           -------------------------------------------------
          |                Calculation Setup                |
           -------------------------------------------------

          program call               : C:\Users\nkapa\Downloads\xtb-6.7.1pre-windows-x86_64\xtb-6.7.1\bin\xtb.EXE dft_tmp\470.xyz --gfn2 --parallel 8 --verbose
          coordinate file            : dft_tmp\470.xyz
          xtbhome directory          : C:\Users\nkapa\AppData\Roaming\SPB_Data
          path for xtb               : C:\Users\nkapa\Downloads\xtb-6.7.1pre-windows-x86_64\xtb-6.7.1\share\xtb
          xcontrol input file        : dft_tmp\470.xyz
          omp threads                :                     8


           -------------------------------------------------
          |                 G F N 2 - x T B                 |
           -------------------------------------------------

        Reference                      10.1021/acs.jctc.8b01176
      * Hamiltonian:
        H0-scaling (s, p, d)           1.850000    2.230000    2.230000
        zeta-weighting                 0.500000
      * Dispersion:
        s8                             2.700000
        a1                             0.520000
        a2                             5.000000
        s9                             5.000000
      * Repulsion:
        kExp                           1.500000    1.000000
        rExp                           1.000000
      * Coulomb:
        alpha                          2.000000
        third order                    shell-resolved
        anisotropic                    true
        a3                             3.000000
        a5                             4.000000
        cn-shift                       1.200000
        cn-exp                         4.000000
        max-rad                        5.000000


          ...................................................
          :                      SETUP                      :
          :.................................................:
          :  # basis functions                  27          :
          :  # atomic orbitals                  27          :
          :  # shells                           15          :
          :  # electrons                        38          :
          :  max. iterations                   250          :
          :  Hamiltonian                  GFN2-xTB          :
          :  restarted?                      false          :
          :  GBSA solvation                  false          :
          :  PC potential                    false          :
          :  electronic temp.          300.0000000     K    :
          :  accuracy                    1.0000000          :
          :  -> integral cutoff          0.2500000E+02      :
          :  -> integral neglect         0.1000000E-07      :
          :  -> SCF convergence          0.1000000E-05 Eh   :
          :  -> wf. convergence          0.1000000E-03 e    :
          :  Broyden damping             0.4000000          :
          :  net charge                          0          :
          :  unpaired electrons                  0          :
          ...................................................

 iter      E             dE          RMSdq      gap      omega  full diag
   1    -24.0858325 -0.240858E+02  0.490E+00   11.76       0.0  T
   2    -24.1436971 -0.578646E-01  0.260E+00   11.10       1.0  T
   3    -24.1466907 -0.299358E-02  0.133E+00   11.23       1.0  T
   4    -24.1478660 -0.117535E-02  0.174E-01   11.12       1.0  T
   5    -24.1479101 -0.441109E-04  0.658E-02   11.16       1.0  T
   6    -24.1479133 -0.317413E-05  0.242E-02   11.17       1.4  T
   7    -24.1479136 -0.259559E-06  0.442E-03   11.17       7.5  T
   8    -24.1479136 -0.610586E-07  0.152E-03   11.17      21.9  T
   9    -24.1479136 -0.303032E-08  0.432E-04   11.17      77.1  T
  10    -24.1479136 -0.499629E-09  0.787E-05   11.17     423.5  T

   *** convergence criteria satisfied after 10 iterations ***

         #    Occupation            Energy/Eh            Energy/eV
      -------------------------------------------------------------
         1        2.0000           -0.8834103             -24.0388
       ...           ...                  ...                  ...
        13        2.0000           -0.5543759             -15.0853
        14        2.0000           -0.5479421             -14.9103
        15        2.0000           -0.5451460             -14.8342
        16        2.0000           -0.5417538             -14.7419
        17        2.0000           -0.5327449             -14.4967
        18        2.0000           -0.5050074             -13.7420
        19        2.0000           -0.4643646             -12.6360 (HOMO)
        20                         -0.0538504              -1.4653 (LUMO)
        21                         -0.0391574              -1.0655
        22                         -0.0242983              -0.6612
        23                          0.0472542               1.2859
        24                          0.0543578               1.4792
       ...                                ...                  ...
        27                          0.1811812               4.9302
      -------------------------------------------------------------
                  HL-Gap            0.4105142 Eh           11.1707 eV
             Fermi-level           -0.2591075 Eh           -7.0507 eV

 SCC (total)                   0 d,  0 h,  0 min,  0.009 sec
 SCC setup                      ...        0 min,  0.000 sec (  0.000%)
 Dispersion                     ...        0 min,  0.001 sec ( 11.110%)
 classical contributions        ...        0 min,  0.000 sec (  0.000%)
 integral evaluation            ...        0 min,  0.000 sec (  0.000%)
 iterations                     ...        0 min,  0.007 sec ( 77.780%)
 molecular gradient             ...        0 min,  0.001 sec ( 11.110%)
 printout                       ...        0 min,  0.000 sec (  0.000%)

         :::::::::::::::::::::::::::::::::::::::::::::::::::::
         ::                     SUMMARY                     ::
         :::::::::::::::::::::::::::::::::::::::::::::::::::::
         :: total energy             -24.063838453541 Eh    ::
         :: gradient norm              0.072309877691 Eh/a0 ::
         :: HOMO-LUMO gap             11.170661192755 eV    ::
         ::.................................................::
         :: HOMO orbital eigv.       -12.636004418348 eV    ::
         :: LUMO orbital eigv.        -1.465343225593 eV    ::
         ::.................................................::
         :: SCC energy               -24.147912417239 Eh    ::
         :: -> isotropic ES            0.063142123315 Eh    ::
         :: -> anisotropic ES          0.003002077367 Eh    ::
         :: -> anisotropic XC         -0.016440047063 Eh    ::
         :: -> dispersion             -0.003765480589 Eh    ::
         :: repulsion energy           0.084073963698 Eh    ::
         :: add. restraining           0.000000000000 Eh    ::
         :: total charge               0.000000000000 e     ::
         ::.................................................::
         :: atomisation energy         2.019260976218 Eh    ::
         :::::::::::::::::::::::::::::::::::::::::::::::::::::

           -------------------------------------------------
          |                Property Printout                |
           -------------------------------------------------

    * Orbital Energies and Occupations

         #    Occupation            Energy/Eh            Energy/eV
      -------------------------------------------------------------
         1        2.0000           -0.8834103             -24.0388
       ...           ...                  ...                  ...
         7        2.0000           -0.6349660             -17.2783
         8        2.0000           -0.6325750             -17.2132
         9        2.0000           -0.6273845             -17.0720
        10        2.0000           -0.6027719             -16.4023
        11        2.0000           -0.5708946             -15.5348
        12        2.0000           -0.5548772             -15.0990
        13        2.0000           -0.5543759             -15.0853
        14        2.0000           -0.5479421             -14.9103
        15        2.0000           -0.5451460             -14.8342
        16        2.0000           -0.5417538             -14.7419
        17        2.0000           -0.5327449             -14.4967
        18        2.0000           -0.5050074             -13.7420
        19        2.0000           -0.4643646             -12.6360 (HOMO)
        20                         -0.0538504              -1.4653 (LUMO)
        21                         -0.0391574              -1.0655
        22                         -0.0242983              -0.6612
        23                          0.0472542               1.2859
        24                          0.0543578               1.4792
        25                          0.0830155               2.2590
        26                          0.1286975               3.5020
        27                          0.1811812               4.9302
      -------------------------------------------------------------
                  HL-Gap            0.4105142 Eh           11.1707 eV
             Fermi-level           -0.2591075 Eh           -7.0507 eV

     #   Z          covCN         q      C6AA      α(0)
     1   8 O        1.652    -0.403    20.914     6.173
     2   6 C        3.671     0.061    19.790     6.377
     3   6 C        3.323     0.461    17.813     6.713
     4   9 F        0.784    -0.188    11.115     3.938
     5   9 F        0.784    -0.204    11.280     3.967
     6   9 F        0.784    -0.201    11.248     3.962
     7   1 H        0.801     0.315     0.680     1.295
     8   1 H        0.921     0.065     2.145     2.290
     9   1 H        0.922     0.096     1.821     2.110

 Mol. C6AA /au·bohr⁶  :        715.528337
 Mol. C8AA /au·bohr⁸  :      14549.587011
 Mol. α(0) /au        :         36.825996


Wiberg/Mayer (AO) data.
largest (>0.10) Wiberg bond orders for each atom

 ---------------------------------------------------------------------------
     #   Z sym  total        # sym  WBO       # sym  WBO       # sym  WBO
 ---------------------------------------------------------------------------
     1   8 O    1.980 --     2 C    1.028     7 H    0.888
     2   6 C    3.958 --     1 O    1.028     8 H    0.963     9 H    0.959
                             3 C    0.950
     3   6 C    3.835 --     4 F    0.957     2 C    0.950     6 F    0.947
                             5 F    0.946
     4   9 F    1.083 --     3 C    0.957
     5   9 F    1.069 --     3 C    0.946
     6   9 F    1.072 --     3 C    0.947
     7   1 H    0.901 --     1 O    0.888
     8   1 H    0.996 --     2 C    0.963
     9   1 H    0.991 --     2 C    0.959
 ---------------------------------------------------------------------------

Topologies differ in total number of bonds
Writing topology from bond orders to xtbtopo.mol

molecular dipole:
                 x           y           z       tot (Debye)
 q only:        0.871      -0.113       0.544
   full:        0.816      -0.103       0.772       2.867
molecular quadrupole (traceless):
                xx          xy          yy          xz          yz          zz
 q only:       -1.998       0.259       2.608       2.087       1.291      -0.610
  q+dip:       -1.889      -0.668       2.574       3.448       2.391      -0.685
   full:       -2.094      -0.182       2.895       3.188       2.190      -0.801


           -------------------------------------------------
          | TOTAL ENERGY              -24.063838453541 Eh   |
          | GRADIENT NORM               0.072309877691 Eh/α |
          | HOMO-LUMO GAP              11.170661192755 eV   |
           -------------------------------------------------
########################################################################
[WARNING] Runtime exception occurred
-2- restart_readRestart: Dimension missmatch in restart file.
-1- restart_readRestart: Number of electron missmatch in restart file.
########################################################################

------------------------------------------------------------------------
 unit  open   action     filename
  129 false : read       dft_tmp\470.xyz
  129 false : read       dft_tmp\470.xyz
  129 false : read       dft_tmp\470.xyz
  129 false : read       C:\Users\nkapa\Downloads\xtb-6.7.1pre-windows-x86_64\xtb-6.7.1\share\xtb\param_gfn2-xtb.txt
  129 false : read       xtbrestart
  129 false : replaced   charges
  129 false : replaced   wbo
  129 false : replaced   xtbtopo.mol
  129 false : replaced   xtbrestart

------------------------------------------------------------------------
 * finished run on 2025/06/23 at 11:32:31.180     
------------------------------------------------------------------------
 total:
 * wall-time:     0 d,  0 h,  0 min,  0.044 sec
 *  cpu-time:     0 d,  0 h,  0 min,  0.266 sec
 * ratio c/w:     6.037 speedup
 SCF:
 * wall-time:     0 d,  0 h,  0 min,  0.009 sec
 *  cpu-time:     0 d,  0 h,  0 min,  0.000 sec
 * ratio c/w:     0.000 speedup

normal termination of xtb
