      -----------------------------------------------------------      
     |                   =====================                   |     
     |                           x T B                           |     
     |                   =====================                   |     
     |                         S. Grimme                         |     
     |          Mulliken Center for Theoretical Chemistry        |     
     |                    University of Bonn                     |     
      -----------------------------------------------------------      

   * xtb version 6.7.1pre (5071a88) compiled by 'Marcel@Raven' on 2024-07-23

   xtb is free software: you can redistribute it and/or modify it under
   the terms of the GNU Lesser General Public License as published by
   the Free Software Foundation, either version 3 of the License, or
   (at your option) any later version.
   
   xtb is distributed in the hope that it will be useful,
   but WITHOUT ANY WARRANTY; without even the implied warranty of
   MERCHANTABILITY or FITNESS FOR A PARTICULAR PURPOSE.  See the
   GNU Lesser General Public License for more details.
   
   Cite this work as:
   * C. Bannwarth, E. Caldeweyher, S. Ehlert, A. Hansen, P. Pracht,
     J. Seibert, S. Spicher, S. Grimme, WIREs Comput. Mol. Sci., 2020, 11,
     e01493. DOI: 10.1002/wcms.1493
   
   for GFN2-xTB:
   * C. Bannwarth, S. Ehlert and S. Grimme., J. Chem. Theory Comput., 2019,
     15, 1652-1671. DOI: 10.1021/acs.jctc.8b01176
   for GFN1-xTB:
   * S. Grimme, C. Bannwarth, P. Shushkov, J. Chem. Theory Comput., 2017,
     13, 1989-2009. DOI: 10.1021/acs.jctc.7b00118
   for GFN0-xTB:
   * P. Pracht, E. Caldeweyher, S. Ehlert, S. Grimme, ChemRxiv, 2019, preprint.
     DOI: 10.26434/chemrxiv.8326202.v1
   for GFN-FF:
   * S. Spicher and S. Grimme, Angew. Chem. Int. Ed., 2020, 59, 15665-15673.
     DOI: 10.1002/anie.202004239
   
   for ALPB and GBSA implicit solvation:
   * S. Ehlert, M. Stahn, S. Spicher, S. Grimme, J. Chem. Theory Comput.,
     2021, 17, 4250-4261. DOI: 10.1021/acs.jctc.1c00471
   
   for ddCOSMO and CPCM-X implicit solvation:
   * M. Stahn, S. Ehlert, S. Grimme, J. Phys. Chem. A,
     2023, XX, XXXX-XXXX. DOI: 10.1021/acs.jpca.3c04382
   
   for DFT-D4:
   * E. Caldeweyher, C. Bannwarth and S. Grimme, J. Chem. Phys., 2017,
     147, 034112. DOI: 10.1063/1.4993215
   * E. Caldeweyher, S. Ehlert, A. Hansen, H. Neugebauer, S. Spicher,
     C. Bannwarth and S. Grimme, J. Chem. Phys., 2019, 150, 154122.
     DOI: 10.1063/1.5090222
   * E. Caldeweyher, J.-M. Mewes, S. Ehlert and S. Grimme, Phys. Chem. Chem. Phys.
     2020, 22, 8499-8512. DOI: 10.1039/D0CP00502A
   
   for sTDA-xTB:
   * S. Grimme and C. Bannwarth, J. Chem. Phys., 2016, 145, 054103.
     DOI: 10.1063/1.4959605
   
   in the mass-spec context:
   * V. Asgeirsson, C. Bauer and S. Grimme, Chem. Sci., 2017, 8, 4879.
     DOI: 10.1039/c7sc00601b
   * J. Koopman and S. Grimme, ACS Omega 2019, 4, 12, 15120-15133.
     DOI: 10.1021/acsomega.9b02011
   
   for metadynamics refer to:
   * S. Grimme, J. Chem. Theory Comput., 2019, 155, 2847-2862
     DOI: 10.1021/acs.jctc.9b00143
   
   for SPH calculations refer to:
   * S. Spicher and S. Grimme, J. Chem. Theory Comput., 2021, 17, 1701-1714
     DOI: 10.1021/acs.jctc.0c01306
   
   for ONIOM refer to:
   * C. Plett, A. Katbashev, S. Ehlert, S. Grimme, M. Bursch,
     Phys. Chem. Chem. Phys., 2023, 25, 17860-17868. DOI: 10.1039/D3CP02178E
   
   for DIPRO refer to:
   * J. Kohn, N. Gildemeister, S. Grimme, D. Fazzi, A. Hansen,
     J. Chem. Phys., 2023, just accepted.
   
   for PTB refer to:
   * S. Grimme, M. Mueller, A. Hansen, J. Chem. Phys., 2023, 158, 124111.
     DOI: 10.1063/5.0137838
   
   with help from (in alphabetical order)
   P. Atkinson, C. Bannwarth, F. Bohle, G. Brandenburg, E. Caldeweyher
   M. Checinski, S. Dohm, S. Ehlert, S. Ehrlich, I. Gerasimov, C. Hölzer
   A. Katbashev, J. Kohn, J. Koopman, C. Lavigne, S. Lehtola, F. März, M. Müller,
   F. Musil, H. Neugebauer, J. Pisarek, C. Plett, P. Pracht, F. Pultar,
   J. Seibert, P. Shushkov, S. Spicher, M. Stahn, M. Steiner, T. Strunk,
   J. Stückrath, T. Rose, and J. Unsleber
   
 * started run on 2025/06/23 at 11:32:31.450     
$$$$$$$$$$$$$$$$$$$$$$$$$$$$$$$$$$$$$$$$$$$$$$$$$$$$$$$$$$$$$$$$$$$$$$$$
 CONSTRAINTS & SCANS: DEBUG SECTION
$$$$$$$$$$$$$$$$$$$$$$$$$$$$$$$$$$$$$$$$$$$$$$$$$$$$$$$$$$$$$$$$$$$$$$$$
   ID    Z sym.   atoms
    1    6 C      1, 3-5
    2    7 N      2
    3    8 O      6
    4    1 H      7-15
$$$$$$$$$$$$$$$$$$$$$$$$$$$$$$$$$$$$$$$$$$$$$$$$$$$$$$$$$$$$$$$$$$$$$$$$

           -------------------------------------------------
          |                Calculation Setup                |
           -------------------------------------------------

          program call               : C:\Users\nkapa\Downloads\xtb-6.7.1pre-windows-x86_64\xtb-6.7.1\bin\xtb.EXE dft_tmp\473.xyz --gfn2 --parallel 8 --verbose
          coordinate file            : dft_tmp\473.xyz
          xtbhome directory          : C:\Users\nkapa\AppData\Roaming\SPB_Data
          path for xtb               : C:\Users\nkapa\Downloads\xtb-6.7.1pre-windows-x86_64\xtb-6.7.1\share\xtb
          xcontrol input file        : dft_tmp\473.xyz
          omp threads                :                     8


           -------------------------------------------------
          |                 G F N 2 - x T B                 |
           -------------------------------------------------

        Reference                      10.1021/acs.jctc.8b01176
      * Hamiltonian:
        H0-scaling (s, p, d)           1.850000    2.230000    2.230000
        zeta-weighting                 0.500000
      * Dispersion:
        s8                             2.700000
        a1                             0.520000
        a2                             5.000000
        s9                             5.000000
      * Repulsion:
        kExp                           1.500000    1.000000
        rExp                           1.000000
      * Coulomb:
        alpha                          2.000000
        third order                    shell-resolved
        anisotropic                    true
        a3                             3.000000
        a5                             4.000000
        cn-shift                       1.200000
        cn-exp                         4.000000
        max-rad                        5.000000


          ...................................................
          :                      SETUP                      :
          :.................................................:
          :  # basis functions                  33          :
          :  # atomic orbitals                  33          :
          :  # shells                           21          :
          :  # electrons                        36          :
          :  max. iterations                   250          :
          :  Hamiltonian                  GFN2-xTB          :
          :  restarted?                      false          :
          :  GBSA solvation                  false          :
          :  PC potential                    false          :
          :  electronic temp.          300.0000000     K    :
          :  accuracy                    1.0000000          :
          :  -> integral cutoff          0.2500000E+02      :
          :  -> integral neglect         0.1000000E-07      :
          :  -> SCF convergence          0.1000000E-05 Eh   :
          :  -> wf. convergence          0.1000000E-03 e    :
          :  Broyden damping             0.4000000          :
          :  net charge                          0          :
          :  unpaired electrons                  0          :
          ...................................................

 iter      E             dE          RMSdq      gap      omega  full diag
   1    -20.2744253 -0.202744E+02  0.382E+00    4.20       0.0  T
   2    -20.3341772 -0.597519E-01  0.208E+00    4.17       1.0  T
   3    -20.3385964 -0.441922E-02  0.123E+00    4.35       1.0  T
   4    -20.3394161 -0.819710E-03  0.240E-01    4.19       1.0  T
   5    -20.3401453 -0.729202E-03  0.953E-02    4.31       1.0  T
   6    -20.3401643 -0.190241E-04  0.467E-02    4.29       1.0  T
   7    -20.3401655 -0.115781E-05  0.944E-03    4.29       2.7  T
   8    -20.3401658 -0.302376E-06  0.267E-03    4.29       9.7  T
   9    -20.3401658 -0.208946E-07  0.654E-04    4.29      39.5  T
  10    -20.3401658 -0.163681E-08  0.176E-04    4.29     146.7  T

   *** convergence criteria satisfied after 10 iterations ***

         #    Occupation            Energy/Eh            Energy/eV
      -------------------------------------------------------------
         1        2.0000           -0.6743985             -18.3513
       ...           ...                  ...                  ...
        12        2.0000           -0.4914960             -13.3743
        13        2.0000           -0.4852556             -13.2045
        14        2.0000           -0.4742096             -12.9039
        15        2.0000           -0.4621967             -12.5770
        16        2.0000           -0.4601475             -12.5213
        17        2.0000           -0.3856993             -10.4954
        18        2.0000           -0.3783185             -10.2946 (HOMO)
        19                         -0.2207383              -6.0066 (LUMO)
        20                         -0.0497656              -1.3542
        21                          0.0552297               1.5029
        22                          0.0802440               2.1836
        23                          0.0888890               2.4188
       ...                                ...                  ...
        33                          0.4855197              13.2117
      -------------------------------------------------------------
                  HL-Gap            0.1575802 Eh            4.2880 eV
             Fermi-level           -0.2995284 Eh           -8.1506 eV

 SCC (total)                   0 d,  0 h,  0 min,  0.013 sec
 SCC setup                      ...        0 min,  0.001 sec (  7.692%)
 Dispersion                     ...        0 min,  0.000 sec (  0.000%)
 classical contributions        ...        0 min,  0.000 sec (  0.000%)
 integral evaluation            ...        0 min,  0.001 sec (  7.692%)
 iterations                     ...        0 min,  0.009 sec ( 69.232%)
 molecular gradient             ...        0 min,  0.001 sec (  7.692%)
 printout                       ...        0 min,  0.001 sec (  7.692%)

         :::::::::::::::::::::::::::::::::::::::::::::::::::::
         ::                     SUMMARY                     ::
         :::::::::::::::::::::::::::::::::::::::::::::::::::::
         :: total energy             -20.137304123267 Eh    ::
         :: gradient norm              0.105195795919 Eh/a0 ::
         :: HOMO-LUMO gap              4.287975335678 eV    ::
         ::.................................................::
         :: HOMO orbital eigv.       -10.294569606857 eV    ::
         :: LUMO orbital eigv.        -6.006594271180 eV    ::
         ::.................................................::
         :: SCC energy               -20.340145862783 Eh    ::
         :: -> isotropic ES            0.040174790248 Eh    ::
         :: -> anisotropic ES          0.004970478785 Eh    ::
         :: -> anisotropic XC          0.009658362807 Eh    ::
         :: -> dispersion             -0.008244654173 Eh    ::
         :: repulsion energy           0.202841739516 Eh    ::
         :: add. restraining           0.000000000000 Eh    ::
         :: total charge              -0.000000000000 e     ::
         ::.................................................::
         :: atomisation energy         3.807972165943 Eh    ::
         :::::::::::::::::::::::::::::::::::::::::::::::::::::

           -------------------------------------------------
          |                Property Printout                |
           -------------------------------------------------

    * Orbital Energies and Occupations

         #    Occupation            Energy/Eh            Energy/eV
      -------------------------------------------------------------
         1        2.0000           -0.6743985             -18.3513
       ...           ...                  ...                  ...
         6        2.0000           -0.5590093             -15.2114
         7        2.0000           -0.5399227             -14.6920
         8        2.0000           -0.5384639             -14.6523
         9        2.0000           -0.5312039             -14.4548
        10        2.0000           -0.5036506             -13.7050
        11        2.0000           -0.4916615             -13.3788
        12        2.0000           -0.4914960             -13.3743
        13        2.0000           -0.4852556             -13.2045
        14        2.0000           -0.4742096             -12.9039
        15        2.0000           -0.4621967             -12.5770
        16        2.0000           -0.4601475             -12.5213
        17        2.0000           -0.3856993             -10.4954
        18        2.0000           -0.3783185             -10.2946 (HOMO)
        19                         -0.2207383              -6.0066 (LUMO)
        20                         -0.0497656              -1.3542
        21                          0.0552297               1.5029
        22                          0.0802440               2.1836
        23                          0.0888890               2.4188
        24                          0.1295285               3.5247
        25                          0.1480870               4.0297
        26                          0.1492933               4.0625
        27                          0.1616567               4.3989
        28                          0.1812163               4.9311
        29                          0.1812854               4.9330
       ...                                ...                  ...
        33                          0.4855197              13.2117
      -------------------------------------------------------------
                  HL-Gap            0.1575802 Eh            4.2880 eV
             Fermi-level           -0.2995284 Eh           -8.1506 eV

     #   Z          covCN         q      C6AA      α(0)
     1   6 C        3.676    -0.042    21.563     6.653
     2   7 N        2.721    -0.113    23.458     7.193
     3   6 C        3.676    -0.035    21.425     6.632
     4   6 C        2.746     0.251    22.785     7.816
     5   6 C        3.743    -0.121    22.892     6.826
     6   8 O        0.857    -0.442    22.536     6.365
     7   1 H        0.922     0.048     2.349     2.397
     8   1 H        0.922     0.048     2.349     2.397
     9   1 H        0.922     0.056     2.251     2.346
    10   1 H        0.922     0.059     2.209     2.324
    11   1 H        0.922     0.047     2.363     2.404
    12   1 H        0.922     0.059     2.209     2.324
    13   1 H        0.922     0.055     2.257     2.349
    14   1 H        0.922     0.055     2.257     2.349
    15   1 H        0.921     0.075     2.035     2.231

 Mol. C6AA /au·bohr⁶  :       1749.841768
 Mol. C8AA /au·bohr⁸  :      36823.456283
 Mol. α(0) /au        :         62.607224


Wiberg/Mayer (AO) data.
largest (>0.10) Wiberg bond orders for each atom

 ---------------------------------------------------------------------------
     #   Z sym  total        # sym  WBO       # sym  WBO       # sym  WBO
 ---------------------------------------------------------------------------
     1   6 C    3.976 --     2 N    1.008     9 H    0.981     7 H    0.976
                             8 H    0.976
     2   7 N    3.443 --     4 C    1.189     1 C    1.008     3 C    1.001
                             6 O    0.191
     3   6 C    3.970 --     2 N    1.001    11 H    0.982    10 H    0.976
                            12 H    0.976
     4   6 C    3.949 --     6 O    1.684     2 N    1.189     5 C    1.014
     5   6 C    3.994 --     4 C    1.014    15 H    0.980    14 H    0.965
                            13 H    0.965
     6   8 O    1.986 --     4 C    1.684     2 N    0.191
     7   1 H    0.998 --     1 C    0.976
     8   1 H    0.998 --     1 C    0.976
     9   1 H    0.997 --     1 C    0.981
    10   1 H    0.996 --     3 C    0.976
    11   1 H    0.998 --     3 C    0.982
    12   1 H    0.996 --     3 C    0.976
    13   1 H    0.997 --     5 C    0.965
    14   1 H    0.997 --     5 C    0.965
    15   1 H    0.994 --     5 C    0.980
 ---------------------------------------------------------------------------

Topologies differ in total number of bonds
Writing topology from bond orders to xtbtopo.mol

molecular dipole:
                 x           y           z       tot (Debye)
 q only:       -0.524       1.439      -0.205
   full:       -0.554       1.692      -0.242       4.568
molecular quadrupole (traceless):
                xx          xy          yy          xz          yz          zz
 q only:        5.164       4.244      -5.614      -0.692       0.854       0.450
  q+dip:        6.126       4.149      -7.889      -0.672       1.398       1.763
   full:        5.703       4.522      -7.664      -0.718       1.389       1.962


           -------------------------------------------------
          | TOTAL ENERGY              -20.137304123267 Eh   |
          | GRADIENT NORM               0.105195795919 Eh/α |
          | HOMO-LUMO GAP               4.287975335678 eV   |
           -------------------------------------------------
########################################################################
[WARNING] Runtime exception occurred
-2- restart_readRestart: Dimension missmatch in restart file.
-1- restart_readRestart: Number of electron missmatch in restart file.
########################################################################

------------------------------------------------------------------------
 unit  open   action     filename
  129 false : read       dft_tmp\473.xyz
  129 false : read       dft_tmp\473.xyz
  129 false : read       dft_tmp\473.xyz
  129 false : read       C:\Users\nkapa\Downloads\xtb-6.7.1pre-windows-x86_64\xtb-6.7.1\share\xtb\param_gfn2-xtb.txt
  129 false : read       xtbrestart
  129 false : replaced   charges
  129 false : replaced   wbo
  129 false : replaced   xtbtopo.mol
  129 false : replaced   xtbrestart

------------------------------------------------------------------------
 * finished run on 2025/06/23 at 11:32:31.503     
------------------------------------------------------------------------
 total:
 * wall-time:     0 d,  0 h,  0 min,  0.052 sec
 *  cpu-time:     0 d,  0 h,  0 min,  0.297 sec
 * ratio c/w:     5.709 speedup
 SCF:
 * wall-time:     0 d,  0 h,  0 min,  0.013 sec
 *  cpu-time:     0 d,  0 h,  0 min,  0.062 sec
 * ratio c/w:     4.808 speedup

normal termination of xtb
