      -----------------------------------------------------------      
     |                   =====================                   |     
     |                           x T B                           |     
     |                   =====================                   |     
     |                         S. Grimme                         |     
     |          Mulliken Center for Theoretical Chemistry        |     
     |                    University of Bonn                     |     
      -----------------------------------------------------------      

   * xtb version 6.7.1pre (5071a88) compiled by 'Marcel@Raven' on 2024-07-23

   xtb is free software: you can redistribute it and/or modify it under
   the terms of the GNU Lesser General Public License as published by
   the Free Software Foundation, either version 3 of the License, or
   (at your option) any later version.
   
   xtb is distributed in the hope that it will be useful,
   but WITHOUT ANY WARRANTY; without even the implied warranty of
   MERCHANTABILITY or FITNESS FOR A PARTICULAR PURPOSE.  See the
   GNU Lesser General Public License for more details.
   
   Cite this work as:
   * C. Bannwarth, E. Caldeweyher, S. Ehlert, A. Hansen, P. Pracht,
     J. Seibert, S. Spicher, S. Grimme, WIREs Comput. Mol. Sci., 2020, 11,
     e01493. DOI: 10.1002/wcms.1493
   
   for GFN2-xTB:
   * C. Bannwarth, S. Ehlert and S. Grimme., J. Chem. Theory Comput., 2019,
     15, 1652-1671. DOI: 10.1021/acs.jctc.8b01176
   for GFN1-xTB:
   * S. Grimme, C. Bannwarth, P. Shushkov, J. Chem. Theory Comput., 2017,
     13, 1989-2009. DOI: 10.1021/acs.jctc.7b00118
   for GFN0-xTB:
   * P. Pracht, E. Caldeweyher, S. Ehlert, S. Grimme, ChemRxiv, 2019, preprint.
     DOI: 10.26434/chemrxiv.8326202.v1
   for GFN-FF:
   * S. Spicher and S. Grimme, Angew. Chem. Int. Ed., 2020, 59, 15665-15673.
     DOI: 10.1002/anie.202004239
   
   for ALPB and GBSA implicit solvation:
   * S. Ehlert, M. Stahn, S. Spicher, S. Grimme, J. Chem. Theory Comput.,
     2021, 17, 4250-4261. DOI: 10.1021/acs.jctc.1c00471
   
   for ddCOSMO and CPCM-X implicit solvation:
   * M. Stahn, S. Ehlert, S. Grimme, J. Phys. Chem. A,
     2023, XX, XXXX-XXXX. DOI: 10.1021/acs.jpca.3c04382
   
   for DFT-D4:
   * E. Caldeweyher, C. Bannwarth and S. Grimme, J. Chem. Phys., 2017,
     147, 034112. DOI: 10.1063/1.4993215
   * E. Caldeweyher, S. Ehlert, A. Hansen, H. Neugebauer, S. Spicher,
     C. Bannwarth and S. Grimme, J. Chem. Phys., 2019, 150, 154122.
     DOI: 10.1063/1.5090222
   * E. Caldeweyher, J.-M. Mewes, S. Ehlert and S. Grimme, Phys. Chem. Chem. Phys.
     2020, 22, 8499-8512. DOI: 10.1039/D0CP00502A
   
   for sTDA-xTB:
   * S. Grimme and C. Bannwarth, J. Chem. Phys., 2016, 145, 054103.
     DOI: 10.1063/1.4959605
   
   in the mass-spec context:
   * V. Asgeirsson, C. Bauer and S. Grimme, Chem. Sci., 2017, 8, 4879.
     DOI: 10.1039/c7sc00601b
   * J. Koopman and S. Grimme, ACS Omega 2019, 4, 12, 15120-15133.
     DOI: 10.1021/acsomega.9b02011
   
   for metadynamics refer to:
   * S. Grimme, J. Chem. Theory Comput., 2019, 155, 2847-2862
     DOI: 10.1021/acs.jctc.9b00143
   
   for SPH calculations refer to:
   * S. Spicher and S. Grimme, J. Chem. Theory Comput., 2021, 17, 1701-1714
     DOI: 10.1021/acs.jctc.0c01306
   
   for ONIOM refer to:
   * C. Plett, A. Katbashev, S. Ehlert, S. Grimme, M. Bursch,
     Phys. Chem. Chem. Phys., 2023, 25, 17860-17868. DOI: 10.1039/D3CP02178E
   
   for DIPRO refer to:
   * J. Kohn, N. Gildemeister, S. Grimme, D. Fazzi, A. Hansen,
     J. Chem. Phys., 2023, just accepted.
   
   for PTB refer to:
   * S. Grimme, M. Mueller, A. Hansen, J. Chem. Phys., 2023, 158, 124111.
     DOI: 10.1063/5.0137838
   
   with help from (in alphabetical order)
   P. Atkinson, C. Bannwarth, F. Bohle, G. Brandenburg, E. Caldeweyher
   M. Checinski, S. Dohm, S. Ehlert, S. Ehrlich, I. Gerasimov, C. Hölzer
   A. Katbashev, J. Kohn, J. Koopman, C. Lavigne, S. Lehtola, F. März, M. Müller,
   F. Musil, H. Neugebauer, J. Pisarek, C. Plett, P. Pracht, F. Pultar,
   J. Seibert, P. Shushkov, S. Spicher, M. Stahn, M. Steiner, T. Strunk,
   J. Stückrath, T. Rose, and J. Unsleber
   
 * started run on 2025/06/23 at 11:32:31.657     
$$$$$$$$$$$$$$$$$$$$$$$$$$$$$$$$$$$$$$$$$$$$$$$$$$$$$$$$$$$$$$$$$$$$$$$$
 CONSTRAINTS & SCANS: DEBUG SECTION
$$$$$$$$$$$$$$$$$$$$$$$$$$$$$$$$$$$$$$$$$$$$$$$$$$$$$$$$$$$$$$$$$$$$$$$$
   ID    Z sym.   atoms
    1    7 N      1
    2    6 C      2, 3
    3    8 O      4
    4    1 H      5-11
$$$$$$$$$$$$$$$$$$$$$$$$$$$$$$$$$$$$$$$$$$$$$$$$$$$$$$$$$$$$$$$$$$$$$$$$

           -------------------------------------------------
          |                Calculation Setup                |
           -------------------------------------------------

          program call               : C:\Users\nkapa\Downloads\xtb-6.7.1pre-windows-x86_64\xtb-6.7.1\bin\xtb.EXE dft_tmp\475.xyz --gfn2 --parallel 8 --verbose
          coordinate file            : dft_tmp\475.xyz
          xtbhome directory          : C:\Users\nkapa\AppData\Roaming\SPB_Data
          path for xtb               : C:\Users\nkapa\Downloads\xtb-6.7.1pre-windows-x86_64\xtb-6.7.1\share\xtb
          xcontrol input file        : dft_tmp\475.xyz
          omp threads                :                     8


           -------------------------------------------------
          |                 G F N 2 - x T B                 |
           -------------------------------------------------

        Reference                      10.1021/acs.jctc.8b01176
      * Hamiltonian:
        H0-scaling (s, p, d)           1.850000    2.230000    2.230000
        zeta-weighting                 0.500000
      * Dispersion:
        s8                             2.700000
        a1                             0.520000
        a2                             5.000000
        s9                             5.000000
      * Repulsion:
        kExp                           1.500000    1.000000
        rExp                           1.000000
      * Coulomb:
        alpha                          2.000000
        third order                    shell-resolved
        anisotropic                    true
        a3                             3.000000
        a5                             4.000000
        cn-shift                       1.200000
        cn-exp                         4.000000
        max-rad                        5.000000


          ...................................................
          :                      SETUP                      :
          :.................................................:
          :  # basis functions                  23          :
          :  # atomic orbitals                  23          :
          :  # shells                           15          :
          :  # electrons                        26          :
          :  max. iterations                   250          :
          :  Hamiltonian                  GFN2-xTB          :
          :  restarted?                      false          :
          :  GBSA solvation                  false          :
          :  PC potential                    false          :
          :  electronic temp.          300.0000000     K    :
          :  accuracy                    1.0000000          :
          :  -> integral cutoff          0.2500000E+02      :
          :  -> integral neglect         0.1000000E-07      :
          :  -> SCF convergence          0.1000000E-05 Eh   :
          :  -> wf. convergence          0.1000000E-03 e    :
          :  Broyden damping             0.4000000          :
          :  net charge                          0          :
          :  unpaired electrons                  0          :
          ...................................................

 iter      E             dE          RMSdq      gap      omega  full diag
   1    -14.9135505 -0.149136E+02  0.371E+00   10.45       0.0  T
   2    -14.9333063 -0.197558E-01  0.199E+00   10.75       1.0  T
   3    -14.9339824 -0.676171E-03  0.722E-01   10.74       1.0  T
   4    -14.9341939 -0.211478E-03  0.135E-01   10.67       1.0  T
   5    -14.9342328 -0.389271E-04  0.603E-02   10.65       1.0  T
   6    -14.9342345 -0.160688E-05  0.181E-02   10.66       1.7  T
   7    -14.9342347 -0.288130E-06  0.560E-03   10.66       5.4  T
   8    -14.9342348 -0.207649E-07  0.156E-03   10.66      19.3  T
   9    -14.9342348 -0.164815E-08  0.323E-04   10.66      93.3  T
  10    -14.9342348 -0.223849E-09  0.818E-05   10.66     368.7  T

   *** convergence criteria satisfied after 10 iterations ***

         #    Occupation            Energy/Eh            Energy/eV
      -------------------------------------------------------------
         1        2.0000           -0.6860965             -18.6696
       ...           ...                  ...                  ...
         7        2.0000           -0.5203953             -14.1607
         8        2.0000           -0.5078321             -13.8188
         9        2.0000           -0.4921116             -13.3910
        10        2.0000           -0.4591842             -12.4950
        11        2.0000           -0.4446338             -12.0991
        12        2.0000           -0.4125117             -11.2250
        13        2.0000           -0.3750490             -10.2056 (HOMO)
        14                          0.0166062               0.4519 (LUMO)
        15                          0.0528493               1.4381
        16                          0.0882866               2.4024
        17                          0.0983133               2.6752
        18                          0.1120920               3.0502
       ...                                ...                  ...
        23                          0.2565706               6.9816
      -------------------------------------------------------------
                  HL-Gap            0.3916552 Eh           10.6575 eV
             Fermi-level           -0.1792214 Eh           -4.8769 eV

 SCC (total)                   0 d,  0 h,  0 min,  0.006 sec
 SCC setup                      ...        0 min,  0.000 sec (  0.000%)
 Dispersion                     ...        0 min,  0.001 sec ( 16.669%)
 classical contributions        ...        0 min,  0.000 sec (  0.000%)
 integral evaluation            ...        0 min,  0.000 sec (  0.000%)
 iterations                     ...        0 min,  0.004 sec ( 66.665%)
 molecular gradient             ...        0 min,  0.001 sec ( 16.665%)
 printout                       ...        0 min,  0.000 sec (  0.000%)

         :::::::::::::::::::::::::::::::::::::::::::::::::::::
         ::                     SUMMARY                     ::
         :::::::::::::::::::::::::::::::::::::::::::::::::::::
         :: total energy             -14.805795070759 Eh    ::
         :: gradient norm              0.057949457885 Eh/a0 ::
         :: HOMO-LUMO gap             10.657479402098 eV    ::
         ::.................................................::
         :: HOMO orbital eigv.       -10.205602917292 eV    ::
         :: LUMO orbital eigv.         0.451876484806 eV    ::
         ::.................................................::
         :: SCC energy               -14.934232485448 Eh    ::
         :: -> isotropic ES            0.034699876315 Eh    ::
         :: -> anisotropic ES          0.004008635965 Eh    ::
         :: -> anisotropic XC          0.007368270670 Eh    ::
         :: -> dispersion             -0.004401126011 Eh    ::
         :: repulsion energy           0.128437414688 Eh    ::
         :: add. restraining           0.000000000000 Eh    ::
         :: total charge              -0.000000000000 e     ::
         ::.................................................::
         :: atomisation energy         2.509187570436 Eh    ::
         :::::::::::::::::::::::::::::::::::::::::::::::::::::

           -------------------------------------------------
          |                Property Printout                |
           -------------------------------------------------

    * Orbital Energies and Occupations

         #    Occupation            Energy/Eh            Energy/eV
      -------------------------------------------------------------
         1        2.0000           -0.6860965             -18.6696
         2        2.0000           -0.6373328             -17.3427
         3        2.0000           -0.6123326             -16.6624
         4        2.0000           -0.5747302             -15.6392
         5        2.0000           -0.5638875             -15.3442
         6        2.0000           -0.5393220             -14.6757
         7        2.0000           -0.5203953             -14.1607
         8        2.0000           -0.5078321             -13.8188
         9        2.0000           -0.4921116             -13.3910
        10        2.0000           -0.4591842             -12.4950
        11        2.0000           -0.4446338             -12.0991
        12        2.0000           -0.4125117             -11.2250
        13        2.0000           -0.3750490             -10.2056 (HOMO)
        14                          0.0166062               0.4519 (LUMO)
        15                          0.0528493               1.4381
        16                          0.0882866               2.4024
        17                          0.0983133               2.6752
        18                          0.1120920               3.0502
        19                          0.1416822               3.8554
        20                          0.1697014               4.6178
        21                          0.1826542               4.9703
        22                          0.2187320               5.9520
        23                          0.2565706               6.9816
      -------------------------------------------------------------
                  HL-Gap            0.3916552 Eh           10.6575 eV
             Fermi-level           -0.1792214 Eh           -4.8769 eV

     #   Z          covCN         q      C6AA      α(0)
     1   7 N        2.624    -0.337    28.679     7.953
     2   6 C        3.724     0.014    20.437     6.455
     3   6 C        3.670     0.079    19.496     6.330
     4   8 O        1.652    -0.435    21.536     6.265
     5   1 H        0.857     0.133     1.526     1.936
     6   1 H        0.857     0.138     1.484     1.908
     7   1 H        0.921     0.020     2.738     2.588
     8   1 H        0.921     0.028     2.612     2.527
     9   1 H        0.922     0.039     2.457     2.451
    10   1 H        0.921     0.026     2.638     2.540
    11   1 H        0.801     0.293     0.743     1.354

 Mol. C6AA /au·bohr⁶  :        820.319865
 Mol. C8AA /au·bohr⁸  :      16328.855192
 Mol. α(0) /au        :         42.306502


Wiberg/Mayer (AO) data.
largest (>0.10) Wiberg bond orders for each atom

 ---------------------------------------------------------------------------
     #   Z sym  total        # sym  WBO       # sym  WBO       # sym  WBO
 ---------------------------------------------------------------------------
     1   7 N    2.996 --     2 C    1.023     5 H    0.969     6 H    0.967
     2   6 C    3.988 --     1 N    1.023     3 C    0.993     8 H    0.975
                             7 H    0.971
     3   6 C    3.960 --     4 O    1.005     2 C    0.993    10 H    0.972
                             9 H    0.970
     4   8 O    1.965 --     3 C    1.005    11 H    0.901
     5   1 H    0.982 --     1 N    0.969
     6   1 H    0.981 --     1 N    0.967
     7   1 H    1.000 --     2 C    0.971
     8   1 H    0.999 --     2 C    0.975
     9   1 H    0.998 --     3 C    0.970
    10   1 H    0.999 --     3 C    0.972
    11   1 H    0.914 --     4 O    0.901
 ---------------------------------------------------------------------------

Topologies differ in total number of bonds
Writing topology from bond orders to xtbtopo.mol

molecular dipole:
                 x           y           z       tot (Debye)
 q only:       -0.376      -0.040       0.155
   full:       -0.525      -0.070      -0.067       1.358
molecular quadrupole (traceless):
                xx          xy          yy          xz          yz          zz
 q only:       -2.931       0.431       2.549       2.123      -0.734       0.381
  q+dip:       -4.290       0.724       2.995       4.076      -0.528       1.295
   full:       -4.037       0.613       3.481       4.037      -0.579       0.556


           -------------------------------------------------
          | TOTAL ENERGY              -14.805795070759 Eh   |
          | GRADIENT NORM               0.057949457885 Eh/α |
          | HOMO-LUMO GAP              10.657479402098 eV   |
           -------------------------------------------------
########################################################################
[WARNING] Runtime exception occurred
-2- restart_readRestart: Dimension missmatch in restart file.
-1- restart_readRestart: Number of electron missmatch in restart file.
########################################################################

------------------------------------------------------------------------
 unit  open   action     filename
  129 false : read       dft_tmp\475.xyz
  129 false : read       dft_tmp\475.xyz
  129 false : read       dft_tmp\475.xyz
  129 false : read       C:\Users\nkapa\Downloads\xtb-6.7.1pre-windows-x86_64\xtb-6.7.1\share\xtb\param_gfn2-xtb.txt
  129 false : read       xtbrestart
  129 false : replaced   charges
  129 false : replaced   wbo
  129 false : replaced   xtbtopo.mol
  129 false : replaced   xtbrestart

------------------------------------------------------------------------
 * finished run on 2025/06/23 at 11:32:31.702     
------------------------------------------------------------------------
 total:
 * wall-time:     0 d,  0 h,  0 min,  0.043 sec
 *  cpu-time:     0 d,  0 h,  0 min,  0.266 sec
 * ratio c/w:     6.177 speedup
 SCF:
 * wall-time:     0 d,  0 h,  0 min,  0.007 sec
 *  cpu-time:     0 d,  0 h,  0 min,  0.125 sec
 * ratio c/w:    17.857 speedup

normal termination of xtb
