      -----------------------------------------------------------      
     |                   =====================                   |     
     |                           x T B                           |     
     |                   =====================                   |     
     |                         S. Grimme                         |     
     |          Mulliken Center for Theoretical Chemistry        |     
     |                    University of Bonn                     |     
      -----------------------------------------------------------      

   * xtb version 6.7.1pre (5071a88) compiled by 'Marcel@Raven' on 2024-07-23

   xtb is free software: you can redistribute it and/or modify it under
   the terms of the GNU Lesser General Public License as published by
   the Free Software Foundation, either version 3 of the License, or
   (at your option) any later version.
   
   xtb is distributed in the hope that it will be useful,
   but WITHOUT ANY WARRANTY; without even the implied warranty of
   MERCHANTABILITY or FITNESS FOR A PARTICULAR PURPOSE.  See the
   GNU Lesser General Public License for more details.
   
   Cite this work as:
   * C. Bannwarth, E. Caldeweyher, S. Ehlert, A. Hansen, P. Pracht,
     J. Seibert, S. Spicher, S. Grimme, WIREs Comput. Mol. Sci., 2020, 11,
     e01493. DOI: 10.1002/wcms.1493
   
   for GFN2-xTB:
   * C. Bannwarth, S. Ehlert and S. Grimme., J. Chem. Theory Comput., 2019,
     15, 1652-1671. DOI: 10.1021/acs.jctc.8b01176
   for GFN1-xTB:
   * S. Grimme, C. Bannwarth, P. Shushkov, J. Chem. Theory Comput., 2017,
     13, 1989-2009. DOI: 10.1021/acs.jctc.7b00118
   for GFN0-xTB:
   * P. Pracht, E. Caldeweyher, S. Ehlert, S. Grimme, ChemRxiv, 2019, preprint.
     DOI: 10.26434/chemrxiv.8326202.v1
   for GFN-FF:
   * S. Spicher and S. Grimme, Angew. Chem. Int. Ed., 2020, 59, 15665-15673.
     DOI: 10.1002/anie.202004239
   
   for ALPB and GBSA implicit solvation:
   * S. Ehlert, M. Stahn, S. Spicher, S. Grimme, J. Chem. Theory Comput.,
     2021, 17, 4250-4261. DOI: 10.1021/acs.jctc.1c00471
   
   for ddCOSMO and CPCM-X implicit solvation:
   * M. Stahn, S. Ehlert, S. Grimme, J. Phys. Chem. A,
     2023, XX, XXXX-XXXX. DOI: 10.1021/acs.jpca.3c04382
   
   for DFT-D4:
   * E. Caldeweyher, C. Bannwarth and S. Grimme, J. Chem. Phys., 2017,
     147, 034112. DOI: 10.1063/1.4993215
   * E. Caldeweyher, S. Ehlert, A. Hansen, H. Neugebauer, S. Spicher,
     C. Bannwarth and S. Grimme, J. Chem. Phys., 2019, 150, 154122.
     DOI: 10.1063/1.5090222
   * E. Caldeweyher, J.-M. Mewes, S. Ehlert and S. Grimme, Phys. Chem. Chem. Phys.
     2020, 22, 8499-8512. DOI: 10.1039/D0CP00502A
   
   for sTDA-xTB:
   * S. Grimme and C. Bannwarth, J. Chem. Phys., 2016, 145, 054103.
     DOI: 10.1063/1.4959605
   
   in the mass-spec context:
   * V. Asgeirsson, C. Bauer and S. Grimme, Chem. Sci., 2017, 8, 4879.
     DOI: 10.1039/c7sc00601b
   * J. Koopman and S. Grimme, ACS Omega 2019, 4, 12, 15120-15133.
     DOI: 10.1021/acsomega.9b02011
   
   for metadynamics refer to:
   * S. Grimme, J. Chem. Theory Comput., 2019, 155, 2847-2862
     DOI: 10.1021/acs.jctc.9b00143
   
   for SPH calculations refer to:
   * S. Spicher and S. Grimme, J. Chem. Theory Comput., 2021, 17, 1701-1714
     DOI: 10.1021/acs.jctc.0c01306
   
   for ONIOM refer to:
   * C. Plett, A. Katbashev, S. Ehlert, S. Grimme, M. Bursch,
     Phys. Chem. Chem. Phys., 2023, 25, 17860-17868. DOI: 10.1039/D3CP02178E
   
   for DIPRO refer to:
   * J. Kohn, N. Gildemeister, S. Grimme, D. Fazzi, A. Hansen,
     J. Chem. Phys., 2023, just accepted.
   
   for PTB refer to:
   * S. Grimme, M. Mueller, A. Hansen, J. Chem. Phys., 2023, 158, 124111.
     DOI: 10.1063/5.0137838
   
   with help from (in alphabetical order)
   P. Atkinson, C. Bannwarth, F. Bohle, G. Brandenburg, E. Caldeweyher
   M. Checinski, S. Dohm, S. Ehlert, S. Ehrlich, I. Gerasimov, C. Hölzer
   A. Katbashev, J. Kohn, J. Koopman, C. Lavigne, S. Lehtola, F. März, M. Müller,
   F. Musil, H. Neugebauer, J. Pisarek, C. Plett, P. Pracht, F. Pultar,
   J. Seibert, P. Shushkov, S. Spicher, M. Stahn, M. Steiner, T. Strunk,
   J. Stückrath, T. Rose, and J. Unsleber
   
 * started run on 2025/06/23 at 11:32:32.512     
$$$$$$$$$$$$$$$$$$$$$$$$$$$$$$$$$$$$$$$$$$$$$$$$$$$$$$$$$$$$$$$$$$$$$$$$
 CONSTRAINTS & SCANS: DEBUG SECTION
$$$$$$$$$$$$$$$$$$$$$$$$$$$$$$$$$$$$$$$$$$$$$$$$$$$$$$$$$$$$$$$$$$$$$$$$
   ID    Z sym.   atoms
    1    6 C      1, 2, 4-6
    2    8 O      3, 7-9
    3    1 H      10-19
$$$$$$$$$$$$$$$$$$$$$$$$$$$$$$$$$$$$$$$$$$$$$$$$$$$$$$$$$$$$$$$$$$$$$$$$

           -------------------------------------------------
          |                Calculation Setup                |
           -------------------------------------------------

          program call               : C:\Users\nkapa\Downloads\xtb-6.7.1pre-windows-x86_64\xtb-6.7.1\bin\xtb.EXE dft_tmp\482.xyz --gfn2 --parallel 8 --verbose
          coordinate file            : dft_tmp\482.xyz
          xtbhome directory          : C:\Users\nkapa\AppData\Roaming\SPB_Data
          path for xtb               : C:\Users\nkapa\Downloads\xtb-6.7.1pre-windows-x86_64\xtb-6.7.1\share\xtb
          xcontrol input file        : dft_tmp\482.xyz
          omp threads                :                     8


           -------------------------------------------------
          |                 G F N 2 - x T B                 |
           -------------------------------------------------

        Reference                      10.1021/acs.jctc.8b01176
      * Hamiltonian:
        H0-scaling (s, p, d)           1.850000    2.230000    2.230000
        zeta-weighting                 0.500000
      * Dispersion:
        s8                             2.700000
        a1                             0.520000
        a2                             5.000000
        s9                             5.000000
      * Repulsion:
        kExp                           1.500000    1.000000
        rExp                           1.000000
      * Coulomb:
        alpha                          2.000000
        third order                    shell-resolved
        anisotropic                    true
        a3                             3.000000
        a5                             4.000000
        cn-shift                       1.200000
        cn-exp                         4.000000
        max-rad                        5.000000


          ...................................................
          :                      SETUP                      :
          :.................................................:
          :  # basis functions                  46          :
          :  # atomic orbitals                  46          :
          :  # shells                           28          :
          :  # electrons                        54          :
          :  max. iterations                   250          :
          :  Hamiltonian                  GFN2-xTB          :
          :  restarted?                      false          :
          :  GBSA solvation                  false          :
          :  PC potential                    false          :
          :  electronic temp.          300.0000000     K    :
          :  accuracy                    1.0000000          :
          :  -> integral cutoff          0.2500000E+02      :
          :  -> integral neglect         0.1000000E-07      :
          :  -> SCF convergence          0.1000000E-05 Eh   :
          :  -> wf. convergence          0.1000000E-03 e    :
          :  Broyden damping             0.4000000          :
          :  net charge                          0          :
          :  unpaired electrons                  0          :
          ...................................................

 iter      E             dE          RMSdq      gap      omega  full diag
   1    -32.1925144 -0.321925E+02  0.475E+00    4.21       0.0  T
   2    -32.2455092 -0.529948E-01  0.244E+00    3.26       1.0  T
   3    -32.2462642 -0.755000E-03  0.147E+00    3.69       1.0  T
   4    -32.2549802 -0.871602E-02  0.213E-01    3.35       1.0  T
   5    -32.2552334 -0.253222E-03  0.953E-02    3.44       1.0  T
   6    -32.2552612 -0.278322E-04  0.350E-02    3.45       1.0  T
   7    -32.2552630 -0.176070E-05  0.147E-02    3.44       1.6  T
   8    -32.2552636 -0.582237E-06  0.280E-03    3.44       8.2  T
   9    -32.2552636 -0.112861E-07  0.127E-03    3.44      18.1  T
  10    -32.2552636 -0.637495E-08  0.267E-04    3.44      86.0  T
  11    -32.2552636 -0.359265E-09  0.116E-04    3.44     197.7  T

   *** convergence criteria satisfied after 11 iterations ***

         #    Occupation            Energy/Eh            Energy/eV
      -------------------------------------------------------------
         1        2.0000           -0.7144932             -19.4423
       ...           ...                  ...                  ...
        21        2.0000           -0.4825321             -13.1304
        22        2.0000           -0.4699573             -12.7882
        23        2.0000           -0.4634079             -12.6100
        24        2.0000           -0.4451105             -12.1121
        25        2.0000           -0.4265596             -11.6073
        26        2.0000           -0.4185169             -11.3884
        27        2.0000           -0.4013750             -10.9220 (HOMO)
        28                         -0.2748329              -7.4786 (LUMO)
        29                         -0.0152626              -0.4153
        30                          0.0053490               0.1456
        31                          0.0394946               1.0747
        32                          0.0531663               1.4467
       ...                                ...                  ...
        46                          0.5325846              14.4924
      -------------------------------------------------------------
                  HL-Gap            0.1265421 Eh            3.4434 eV
             Fermi-level           -0.3381039 Eh           -9.2003 eV

 SCC (total)                   0 d,  0 h,  0 min,  0.015 sec
 SCC setup                      ...        0 min,  0.001 sec (  6.666%)
 Dispersion                     ...        0 min,  0.000 sec (  0.000%)
 classical contributions        ...        0 min,  0.000 sec (  0.000%)
 integral evaluation            ...        0 min,  0.001 sec (  6.668%)
 iterations                     ...        0 min,  0.010 sec ( 66.667%)
 molecular gradient             ...        0 min,  0.001 sec (  6.666%)
 printout                       ...        0 min,  0.002 sec ( 13.332%)

         :::::::::::::::::::::::::::::::::::::::::::::::::::::
         ::                     SUMMARY                     ::
         :::::::::::::::::::::::::::::::::::::::::::::::::::::
         :: total energy             -32.007456498741 Eh    ::
         :: gradient norm              0.092940477077 Eh/a0 ::
         :: HOMO-LUMO gap              3.443386619680 eV    ::
         ::.................................................::
         :: HOMO orbital eigv.       -10.921969451601 eV    ::
         :: LUMO orbital eigv.        -7.478582831920 eV    ::
         ::.................................................::
         :: SCC energy               -32.255243762760 Eh    ::
         :: -> isotropic ES            0.092350149759 Eh    ::
         :: -> anisotropic ES          0.006582180424 Eh    ::
         :: -> anisotropic XC         -0.000213516522 Eh    ::
         :: -> dispersion             -0.012180473781 Eh    ::
         :: repulsion energy           0.247787264019 Eh    ::
         :: add. restraining           0.000000000000 Eh    ::
         :: total charge              -0.000000000000 e     ::
         ::.................................................::
         :: atomisation energy         4.895060321759 Eh    ::
         :::::::::::::::::::::::::::::::::::::::::::::::::::::

           -------------------------------------------------
          |                Property Printout                |
           -------------------------------------------------

    * Orbital Energies and Occupations

         #    Occupation            Energy/Eh            Energy/eV
      -------------------------------------------------------------
         1        2.0000           -0.7144932             -19.4423
       ...           ...                  ...                  ...
        15        2.0000           -0.5423838             -14.7590
        16        2.0000           -0.5378599             -14.6359
        17        2.0000           -0.5194374             -14.1346
        18        2.0000           -0.5153047             -14.0222
        19        2.0000           -0.5055882             -13.7578
        20        2.0000           -0.4979863             -13.5509
        21        2.0000           -0.4825321             -13.1304
        22        2.0000           -0.4699573             -12.7882
        23        2.0000           -0.4634079             -12.6100
        24        2.0000           -0.4451105             -12.1121
        25        2.0000           -0.4265596             -11.6073
        26        2.0000           -0.4185169             -11.3884
        27        2.0000           -0.4013750             -10.9220 (HOMO)
        28                         -0.2748329              -7.4786 (LUMO)
        29                         -0.0152626              -0.4153
        30                          0.0053490               0.1456
        31                          0.0394946               1.0747
        32                          0.0531663               1.4467
        33                          0.0734446               1.9985
        34                          0.0866699               2.3584
        35                          0.0935266               2.5450
        36                          0.1095969               2.9823
        37                          0.1105956               3.0095
        38                          0.1343128               3.6548
       ...                                ...                  ...
        46                          0.5325846              14.4924
      -------------------------------------------------------------
                  HL-Gap            0.1265421 Eh            3.4434 eV
             Fermi-level           -0.3381039 Eh           -9.2003 eV

     #   Z          covCN         q      C6AA      α(0)
     1   6 C        3.797    -0.084    22.114     6.696
     2   6 C        2.761     0.206    23.617     7.958
     3   8 O        0.856    -0.314    20.045     6.003
     4   6 C        3.722     0.115    18.810     6.194
     5   6 C        3.721     0.092    19.157     6.251
     6   6 C        3.669     0.079    19.503     6.331
     7   8 O        1.652    -0.422    21.280     6.227
     8   8 O        1.651    -0.420    21.248     6.222
     9   8 O        1.652    -0.419    21.228     6.220
    10   1 H        0.921     0.093     1.847     2.125
    11   1 H        0.921     0.058     2.219     2.330
    12   1 H        0.925     0.033     2.541     2.493
    13   1 H        0.920     0.004     2.998     2.708
    14   1 H        0.921     0.076     2.022     2.224
    15   1 H        0.921     0.006     2.952     2.687
    16   1 H        0.921     0.025     2.657     2.549
    17   1 H        0.801     0.292     0.746     1.357
    18   1 H        0.801     0.287     0.762     1.371
    19   1 H        0.801     0.293     0.745     1.356

 Mol. C6AA /au·bohr⁶  :       2957.057188
 Mol. C8AA /au·bohr⁸  :      62843.411386
 Mol. α(0) /au        :         79.303076


Wiberg/Mayer (AO) data.
largest (>0.10) Wiberg bond orders for each atom

 ---------------------------------------------------------------------------
     #   Z sym  total        # sym  WBO       # sym  WBO       # sym  WBO
 ---------------------------------------------------------------------------
     1   6 C    3.992 --     2 C    1.010    11 H    0.973     4 C    0.965
                            10 H    0.946
     2   6 C    3.921 --     3 O    1.928     1 C    1.010    12 H    0.942
     3   8 O    2.077 --     2 C    1.928
     4   6 C    3.961 --     9 O    1.002     1 C    0.965    13 H    0.962
                             5 C    0.952
     5   6 C    3.956 --     8 O    1.007     6 C    0.979    14 H    0.955
                             4 C    0.952
     6   6 C    3.963 --     7 O    1.008     5 C    0.979    16 H    0.968
                            15 H    0.967
     7   8 O    1.962 --     6 C    1.008    17 H    0.900
     8   8 O    1.982 --     5 C    1.007    18 H    0.897
     9   8 O    1.980 --     4 C    1.002    19 H    0.900
    10   1 H    0.991 --     1 C    0.946
    11   1 H    0.997 --     1 C    0.973
    12   1 H    0.999 --     2 C    0.942
    13   1 H    1.000 --     4 C    0.962
    14   1 H    0.994 --     5 C    0.955
    15   1 H    1.000 --     6 C    0.967
    16   1 H    0.999 --     6 C    0.968
    17   1 H    0.914 --     7 O    0.900
    18   1 H    0.917 --     8 O    0.897
    19   1 H    0.914 --     9 O    0.900
 ---------------------------------------------------------------------------

Topologies differ in total number of bonds
Writing topology from bond orders to xtbtopo.mol

molecular dipole:
                 x           y           z       tot (Debye)
 q only:       -0.836       0.603      -0.765
   full:       -1.026       1.087      -1.140       4.778
molecular quadrupole (traceless):
                xx          xy          yy          xz          yz          zz
 q only:       -6.457     -12.132       2.549      -5.353       0.313       3.908
  q+dip:       -8.391     -17.319       2.385      -7.780      -1.660       6.006
   full:       -8.148     -17.495       3.109      -7.417      -1.182       5.039


           -------------------------------------------------
          | TOTAL ENERGY              -32.007456498741 Eh   |
          | GRADIENT NORM               0.092940477077 Eh/α |
          | HOMO-LUMO GAP               3.443386619680 eV   |
           -------------------------------------------------
########################################################################
[WARNING] Runtime exception occurred
-2- restart_readRestart: Dimension missmatch in restart file.
-1- restart_readRestart: Number of electron missmatch in restart file.
########################################################################

------------------------------------------------------------------------
 unit  open   action     filename
  129 false : read       dft_tmp\482.xyz
  129 false : read       dft_tmp\482.xyz
  129 false : read       dft_tmp\482.xyz
  129 false : read       C:\Users\nkapa\Downloads\xtb-6.7.1pre-windows-x86_64\xtb-6.7.1\share\xtb\param_gfn2-xtb.txt
  129 false : read       xtbrestart
  129 false : replaced   charges
  129 false : replaced   wbo
  129 false : replaced   xtbtopo.mol
  129 false : replaced   xtbrestart

------------------------------------------------------------------------
 * finished run on 2025/06/23 at 11:32:32.582     
------------------------------------------------------------------------
 total:
 * wall-time:     0 d,  0 h,  0 min,  0.068 sec
 *  cpu-time:     0 d,  0 h,  0 min,  0.391 sec
 * ratio c/w:     5.744 speedup
 SCF:
 * wall-time:     0 d,  0 h,  0 min,  0.015 sec
 *  cpu-time:     0 d,  0 h,  0 min,  0.125 sec
 * ratio c/w:     8.333 speedup

normal termination of xtb
