      -----------------------------------------------------------      
     |                   =====================                   |     
     |                           x T B                           |     
     |                   =====================                   |     
     |                         S. Grimme                         |     
     |          Mulliken Center for Theoretical Chemistry        |     
     |                    University of Bonn                     |     
      -----------------------------------------------------------      

   * xtb version 6.7.1pre (5071a88) compiled by 'Marcel@Raven' on 2024-07-23

   xtb is free software: you can redistribute it and/or modify it under
   the terms of the GNU Lesser General Public License as published by
   the Free Software Foundation, either version 3 of the License, or
   (at your option) any later version.
   
   xtb is distributed in the hope that it will be useful,
   but WITHOUT ANY WARRANTY; without even the implied warranty of
   MERCHANTABILITY or FITNESS FOR A PARTICULAR PURPOSE.  See the
   GNU Lesser General Public License for more details.
   
   Cite this work as:
   * C. Bannwarth, E. Caldeweyher, S. Ehlert, A. Hansen, P. Pracht,
     J. Seibert, S. Spicher, S. Grimme, WIREs Comput. Mol. Sci., 2020, 11,
     e01493. DOI: 10.1002/wcms.1493
   
   for GFN2-xTB:
   * C. Bannwarth, S. Ehlert and S. Grimme., J. Chem. Theory Comput., 2019,
     15, 1652-1671. DOI: 10.1021/acs.jctc.8b01176
   for GFN1-xTB:
   * S. Grimme, C. Bannwarth, P. Shushkov, J. Chem. Theory Comput., 2017,
     13, 1989-2009. DOI: 10.1021/acs.jctc.7b00118
   for GFN0-xTB:
   * P. Pracht, E. Caldeweyher, S. Ehlert, S. Grimme, ChemRxiv, 2019, preprint.
     DOI: 10.26434/chemrxiv.8326202.v1
   for GFN-FF:
   * S. Spicher and S. Grimme, Angew. Chem. Int. Ed., 2020, 59, 15665-15673.
     DOI: 10.1002/anie.202004239
   
   for ALPB and GBSA implicit solvation:
   * S. Ehlert, M. Stahn, S. Spicher, S. Grimme, J. Chem. Theory Comput.,
     2021, 17, 4250-4261. DOI: 10.1021/acs.jctc.1c00471
   
   for ddCOSMO and CPCM-X implicit solvation:
   * M. Stahn, S. Ehlert, S. Grimme, J. Phys. Chem. A,
     2023, XX, XXXX-XXXX. DOI: 10.1021/acs.jpca.3c04382
   
   for DFT-D4:
   * E. Caldeweyher, C. Bannwarth and S. Grimme, J. Chem. Phys., 2017,
     147, 034112. DOI: 10.1063/1.4993215
   * E. Caldeweyher, S. Ehlert, A. Hansen, H. Neugebauer, S. Spicher,
     C. Bannwarth and S. Grimme, J. Chem. Phys., 2019, 150, 154122.
     DOI: 10.1063/1.5090222
   * E. Caldeweyher, J.-M. Mewes, S. Ehlert and S. Grimme, Phys. Chem. Chem. Phys.
     2020, 22, 8499-8512. DOI: 10.1039/D0CP00502A
   
   for sTDA-xTB:
   * S. Grimme and C. Bannwarth, J. Chem. Phys., 2016, 145, 054103.
     DOI: 10.1063/1.4959605
   
   in the mass-spec context:
   * V. Asgeirsson, C. Bauer and S. Grimme, Chem. Sci., 2017, 8, 4879.
     DOI: 10.1039/c7sc00601b
   * J. Koopman and S. Grimme, ACS Omega 2019, 4, 12, 15120-15133.
     DOI: 10.1021/acsomega.9b02011
   
   for metadynamics refer to:
   * S. Grimme, J. Chem. Theory Comput., 2019, 155, 2847-2862
     DOI: 10.1021/acs.jctc.9b00143
   
   for SPH calculations refer to:
   * S. Spicher and S. Grimme, J. Chem. Theory Comput., 2021, 17, 1701-1714
     DOI: 10.1021/acs.jctc.0c01306
   
   for ONIOM refer to:
   * C. Plett, A. Katbashev, S. Ehlert, S. Grimme, M. Bursch,
     Phys. Chem. Chem. Phys., 2023, 25, 17860-17868. DOI: 10.1039/D3CP02178E
   
   for DIPRO refer to:
   * J. Kohn, N. Gildemeister, S. Grimme, D. Fazzi, A. Hansen,
     J. Chem. Phys., 2023, just accepted.
   
   for PTB refer to:
   * S. Grimme, M. Mueller, A. Hansen, J. Chem. Phys., 2023, 158, 124111.
     DOI: 10.1063/5.0137838
   
   with help from (in alphabetical order)
   P. Atkinson, C. Bannwarth, F. Bohle, G. Brandenburg, E. Caldeweyher
   M. Checinski, S. Dohm, S. Ehlert, S. Ehrlich, I. Gerasimov, C. Hölzer
   A. Katbashev, J. Kohn, J. Koopman, C. Lavigne, S. Lehtola, F. März, M. Müller,
   F. Musil, H. Neugebauer, J. Pisarek, C. Plett, P. Pracht, F. Pultar,
   J. Seibert, P. Shushkov, S. Spicher, M. Stahn, M. Steiner, T. Strunk,
   J. Stückrath, T. Rose, and J. Unsleber
   
 * started run on 2025/06/23 at 11:32:32.651     
$$$$$$$$$$$$$$$$$$$$$$$$$$$$$$$$$$$$$$$$$$$$$$$$$$$$$$$$$$$$$$$$$$$$$$$$
 CONSTRAINTS & SCANS: DEBUG SECTION
$$$$$$$$$$$$$$$$$$$$$$$$$$$$$$$$$$$$$$$$$$$$$$$$$$$$$$$$$$$$$$$$$$$$$$$$
   ID    Z sym.   atoms
    1    6 C      1-5, 7
    2    8 O      6, 8-12
    3    1 H      13-24
$$$$$$$$$$$$$$$$$$$$$$$$$$$$$$$$$$$$$$$$$$$$$$$$$$$$$$$$$$$$$$$$$$$$$$$$

           -------------------------------------------------
          |                Calculation Setup                |
           -------------------------------------------------

          program call               : C:\Users\nkapa\Downloads\xtb-6.7.1pre-windows-x86_64\xtb-6.7.1\bin\xtb.EXE dft_tmp\483.xyz --gfn2 --parallel 8 --verbose
          coordinate file            : dft_tmp\483.xyz
          xtbhome directory          : C:\Users\nkapa\AppData\Roaming\SPB_Data
          path for xtb               : C:\Users\nkapa\Downloads\xtb-6.7.1pre-windows-x86_64\xtb-6.7.1\share\xtb
          xcontrol input file        : dft_tmp\483.xyz
          omp threads                :                     8


           -------------------------------------------------
          |                 G F N 2 - x T B                 |
           -------------------------------------------------

        Reference                      10.1021/acs.jctc.8b01176
      * Hamiltonian:
        H0-scaling (s, p, d)           1.850000    2.230000    2.230000
        zeta-weighting                 0.500000
      * Dispersion:
        s8                             2.700000
        a1                             0.520000
        a2                             5.000000
        s9                             5.000000
      * Repulsion:
        kExp                           1.500000    1.000000
        rExp                           1.000000
      * Coulomb:
        alpha                          2.000000
        third order                    shell-resolved
        anisotropic                    true
        a3                             3.000000
        a5                             4.000000
        cn-shift                       1.200000
        cn-exp                         4.000000
        max-rad                        5.000000


          ...................................................
          :                      SETUP                      :
          :.................................................:
          :  # basis functions                  60          :
          :  # atomic orbitals                  60          :
          :  # shells                           36          :
          :  # electrons                        72          :
          :  max. iterations                   250          :
          :  Hamiltonian                  GFN2-xTB          :
          :  restarted?                      false          :
          :  GBSA solvation                  false          :
          :  PC potential                    false          :
          :  electronic temp.          300.0000000     K    :
          :  accuracy                    1.0000000          :
          :  -> integral cutoff          0.2500000E+02      :
          :  -> integral neglect         0.1000000E-07      :
          :  -> SCF convergence          0.1000000E-05 Eh   :
          :  -> wf. convergence          0.1000000E-03 e    :
          :  Broyden damping             0.4000000          :
          :  net charge                          0          :
          :  unpaired electrons                  0          :
          ...................................................

 iter      E             dE          RMSdq      gap      omega  full diag
   1    -43.5451530 -0.435452E+02  0.463E+00    3.72       0.0  T
   2    -43.5868401 -0.416871E-01  0.245E+00    2.99       1.0  T
   3    -43.5821859  0.465421E-02  0.131E+00    3.43       1.0  T
   4    -43.5956269 -0.134411E-01  0.213E-01    3.11       1.0  T
   5    -43.5958335 -0.206579E-03  0.830E-02    3.17       1.0  T
   6    -43.5958514 -0.178930E-04  0.306E-02    3.17       1.0  T
   7    -43.5958528 -0.141139E-05  0.937E-03    3.16       2.2  T
   8    -43.5958533 -0.453454E-06  0.334E-03    3.16       6.1  T
   9    -43.5958533 -0.363802E-07  0.110E-03    3.17      18.6  T
  10    -43.5958533 -0.393884E-08  0.384E-04    3.17      53.1  T
  11    -43.5958533 -0.840814E-09  0.108E-04    3.17     189.1  T

   *** convergence criteria satisfied after 11 iterations ***

         #    Occupation            Energy/Eh            Energy/eV
      -------------------------------------------------------------
         1        2.0000           -0.7232969             -19.6819
       ...           ...                  ...                  ...
        30        2.0000           -0.4641534             -12.6303
        31        2.0000           -0.4599954             -12.5171
        32        2.0000           -0.4347728             -11.8308
        33        2.0000           -0.4271037             -11.6221
        34        2.0000           -0.4232593             -11.5175
        35        2.0000           -0.4195946             -11.4177
        36        2.0000           -0.3962151             -10.7816 (HOMO)
        37                         -0.2799013              -7.6165 (LUMO)
        38                         -0.0118377              -0.3221
        39                         -0.0070596              -0.1921
        40                          0.0131627               0.3582
        41                          0.0334876               0.9112
       ...                                ...                  ...
        60                          0.5488736              14.9356
      -------------------------------------------------------------
                  HL-Gap            0.1163138 Eh            3.1651 eV
             Fermi-level           -0.3380582 Eh           -9.1990 eV

 SCC (total)                   0 d,  0 h,  0 min,  0.031 sec
 SCC setup                      ...        0 min,  0.000 sec (  0.000%)
 Dispersion                     ...        0 min,  0.001 sec (  3.226%)
 classical contributions        ...        0 min,  0.000 sec (  0.000%)
 integral evaluation            ...        0 min,  0.001 sec (  3.226%)
 iterations                     ...        0 min,  0.023 sec ( 74.193%)
 molecular gradient             ...        0 min,  0.005 sec ( 16.129%)
 printout                       ...        0 min,  0.001 sec (  3.226%)

         :::::::::::::::::::::::::::::::::::::::::::::::::::::
         ::                     SUMMARY                     ::
         :::::::::::::::::::::::::::::::::::::::::::::::::::::
         :: total energy             -43.298591210172 Eh    ::
         :: gradient norm              0.094251981579 Eh/a0 ::
         :: HOMO-LUMO gap              3.165060921567 eV    ::
         ::.................................................::
         :: HOMO orbital eigv.       -10.781561696175 eV    ::
         :: LUMO orbital eigv.        -7.616500774608 eV    ::
         ::.................................................::
         :: SCC energy               -43.595672200851 Eh    ::
         :: -> isotropic ES            0.138139907725 Eh    ::
         :: -> anisotropic ES          0.004521078182 Eh    ::
         :: -> anisotropic XC         -0.006450963122 Eh    ::
         :: -> dispersion             -0.018334628205 Eh    ::
         :: repulsion energy           0.297080990679 Eh    ::
         :: add. restraining           0.000000000000 Eh    ::
         :: total charge               0.000000000000 e     ::
         ::.................................................::
         :: atomisation energy         6.244764433354 Eh    ::
         :::::::::::::::::::::::::::::::::::::::::::::::::::::

           -------------------------------------------------
          |                Property Printout                |
           -------------------------------------------------

    * Orbital Energies and Occupations

         #    Occupation            Energy/Eh            Energy/eV
      -------------------------------------------------------------
         1        2.0000           -0.7232969             -19.6819
       ...           ...                  ...                  ...
        24        2.0000           -0.5183878             -14.1060
        25        2.0000           -0.5160182             -14.0416
        26        2.0000           -0.5032093             -13.6930
        27        2.0000           -0.4918303             -13.3834
        28        2.0000           -0.4815828             -13.1045
        29        2.0000           -0.4753852             -12.9359
        30        2.0000           -0.4641534             -12.6303
        31        2.0000           -0.4599954             -12.5171
        32        2.0000           -0.4347728             -11.8308
        33        2.0000           -0.4271037             -11.6221
        34        2.0000           -0.4232593             -11.5175
        35        2.0000           -0.4195946             -11.4177
        36        2.0000           -0.3962151             -10.7816 (HOMO)
        37                         -0.2799013              -7.6165 (LUMO)
        38                         -0.0118377              -0.3221
        39                         -0.0070596              -0.1921
        40                          0.0131627               0.3582
        41                          0.0334876               0.9112
        42                          0.0461436               1.2556
        43                          0.0636410               1.7318
        44                          0.0731943               1.9917
        45                          0.0825691               2.2468
        46                          0.0957174               2.6046
        47                          0.1082716               2.9462
       ...                                ...                  ...
        60                          0.5488736              14.9356
      -------------------------------------------------------------
                  HL-Gap            0.1163138 Eh            3.1651 eV
             Fermi-level           -0.3380582 Eh           -9.1990 eV

     #   Z          covCN         q      C6AA      α(0)
     1   6 C        3.667     0.070    19.654     6.357
     2   6 C        3.718     0.101    19.033     6.232
     3   6 C        3.718     0.096    19.112     6.245
     4   6 C        3.722     0.077    19.407     6.291
     5   6 C        2.811     0.221    23.356     7.918
     6   8 O        0.858    -0.327    20.280     6.038
     7   6 C        3.672     0.066    19.706     6.362
     8   8 O        1.653    -0.413    21.109     6.202
     9   8 O        1.652    -0.416    21.160     6.210
    10   8 O        1.652    -0.433    21.499     6.259
    11   8 O        1.652    -0.429    21.414     6.247
    12   8 O        1.652    -0.449    21.833     6.308
    13   1 H        0.921     0.038     2.481     2.464
    14   1 H        0.921     0.035     2.518     2.481
    15   1 H        0.921     0.055     2.254     2.348
    16   1 H        0.920     0.034     2.526     2.486
    17   1 H        0.922     0.075     2.035     2.231
    18   1 H        0.921     0.055     2.254     2.348
    19   1 H        0.921     0.038     2.471     2.459
    20   1 H        0.801     0.299     0.726     1.339
    21   1 H        0.801     0.300     0.721     1.335
    22   1 H        0.801     0.305     0.707     1.321
    23   1 H        0.801     0.303     0.714     1.328
    24   1 H        0.801     0.301     0.720     1.333

 Mol. C6AA /au·bohr⁶  :       4797.267586
 Mol. C8AA /au·bohr⁸  :     102258.245999
 Mol. α(0) /au        :        100.138949


Wiberg/Mayer (AO) data.
largest (>0.10) Wiberg bond orders for each atom

 ---------------------------------------------------------------------------
     #   Z sym  total        # sym  WBO       # sym  WBO       # sym  WBO
 ---------------------------------------------------------------------------
     1   6 C    3.955 --    12 O    0.999     2 C    0.980    14 H    0.968
                            13 H    0.968
     2   6 C    3.961 --    11 O    1.008     1 C    0.980     3 C    0.963
                            15 H    0.957
     3   6 C    3.957 --    10 O    1.002     2 C    0.963    16 H    0.958
                             4 C    0.941
     4   6 C    3.957 --     9 O    0.997     5 C    0.956    17 H    0.955
                             3 C    0.941
     5   6 C    3.913 --     6 O    1.889     7 C    0.979     4 C    0.956
     6   8 O    2.076 --     5 C    1.889
     7   6 C    3.964 --     8 O    1.003     5 C    0.979    19 H    0.967
                            18 H    0.944
     8   8 O    1.963 --     7 C    1.003    20 H    0.896
     9   8 O    1.989 --     4 C    0.997    21 H    0.889
    10   8 O    1.977 --     3 C    1.002    22 H    0.891
    11   8 O    1.974 --     2 C    1.008    23 H    0.890
    12   8 O    1.949 --     1 C    0.999    24 H    0.895
    13   1 H    0.999 --     1 C    0.968
    14   1 H    0.999 --     1 C    0.968
    15   1 H    0.997 --     2 C    0.957
    16   1 H    0.999 --     3 C    0.958
    17   1 H    0.994 --     4 C    0.955
    18   1 H    0.996 --     7 C    0.944
    19   1 H    0.999 --     7 C    0.967
    20   1 H    0.911 --     8 O    0.896
    21   1 H    0.910 --     9 O    0.889
    22   1 H    0.907 --    10 O    0.891
    23   1 H    0.908 --    11 O    0.890
    24   1 H    0.910 --    12 O    0.895
 ---------------------------------------------------------------------------

Topologies differ in total number of bonds
Writing topology from bond orders to xtbtopo.mol

molecular dipole:
                 x           y           z       tot (Debye)
 q only:        1.202      -0.436      -0.497
   full:        1.481      -0.538      -0.590       4.276
molecular quadrupole (traceless):
                xx          xy          yy          xz          yz          zz
 q only:       -4.673       2.173      14.768       0.259       4.632     -10.095
  q+dip:       -6.509       1.015      19.997      -2.445       5.599     -13.488
   full:       -6.083       1.255      19.878      -1.130       5.765     -13.795


           -------------------------------------------------
          | TOTAL ENERGY              -43.298591210172 Eh   |
          | GRADIENT NORM               0.094251981579 Eh/α |
          | HOMO-LUMO GAP               3.165060921567 eV   |
           -------------------------------------------------
########################################################################
[WARNING] Runtime exception occurred
-2- restart_readRestart: Dimension missmatch in restart file.
-1- restart_readRestart: Number of electron missmatch in restart file.
########################################################################

------------------------------------------------------------------------
 unit  open   action     filename
  129 false : read       dft_tmp\483.xyz
  129 false : read       dft_tmp\483.xyz
  129 false : read       dft_tmp\483.xyz
  129 false : read       C:\Users\nkapa\Downloads\xtb-6.7.1pre-windows-x86_64\xtb-6.7.1\share\xtb\param_gfn2-xtb.txt
  129 false : read       xtbrestart
  129 false : replaced   charges
  129 false : replaced   wbo
  129 false : replaced   xtbtopo.mol
  129 false : replaced   xtbrestart

------------------------------------------------------------------------
 * finished run on 2025/06/23 at 11:32:32.722     
------------------------------------------------------------------------
 total:
 * wall-time:     0 d,  0 h,  0 min,  0.069 sec
 *  cpu-time:     0 d,  0 h,  0 min,  0.219 sec
 * ratio c/w:     3.170 speedup
 SCF:
 * wall-time:     0 d,  0 h,  0 min,  0.032 sec
 *  cpu-time:     0 d,  0 h,  0 min,  0.172 sec
 * ratio c/w:     5.371 speedup

normal termination of xtb
