20

C -2.187880 -0.645061 0.267066
C -1.051140 0.354085 -0.020554
C 0.340467 -0.283475 0.216577
C 1.476652 0.768428 0.119494
C 2.803868 0.193015 0.544622
O 2.968718 -0.199376 1.688925
O 1.571093 1.311349 -1.174824
O 0.552187 -1.330525 -0.699002
O -1.166659 0.874635 -1.322839
O -3.436037 -0.037950 0.068474
H -2.110923 -1.026396 1.311091
H -2.108263 -1.517418 -0.416010
H -1.166824 1.199213 0.693263
H 0.337801 -0.691174 1.256267
H 1.244787 1.602140 0.817484
H 3.628167 0.136344 -0.159410
H 1.816256 0.576887 -1.796628
H 1.209735 -1.949612 -0.286981
H -1.128900 0.113239 -1.958733
H -3.593104 0.551652 0.851718
