26

C -3.079253 0.355209 -0.025814
C -1.884727 -0.594072 0.176940
C -0.527952 0.158932 0.249831
C 0.656716 -0.821113 0.442027
C 2.031303 -0.099887 0.520192
C 2.397746 0.641901 -0.782168
O 3.718036 1.111295 -0.725607
O 3.043051 -1.021698 0.845857
O 0.454915 -1.555392 1.624971
O -0.551205 1.072254 1.319831
O -1.871491 -1.575954 -0.830693
O -2.929750 1.095137 -1.206737
H -4.013888 -0.246914 -0.079236
H -3.164739 1.044353 0.843780
H -2.048264 -1.113349 1.146412
H -0.384307 0.693721 -0.717369
H 0.676851 -1.513508 -0.433499
H 1.993028 0.649200 1.340647
H 1.709461 1.498270 -0.955584
H 2.307715 -0.050021 -1.646565
H 3.717595 1.886562 -0.105207
H 3.088753 -1.687531 0.110036
H 0.892765 -2.437907 1.501291
H -0.828775 1.951302 0.951200
H -1.675481 -1.122233 -1.691815
H -3.728107 1.681444 -1.267144
