      -----------------------------------------------------------      
     |                   =====================                   |     
     |                           x T B                           |     
     |                   =====================                   |     
     |                         S. Grimme                         |     
     |          Mulliken Center for Theoretical Chemistry        |     
     |                    University of Bonn                     |     
      -----------------------------------------------------------      

   * xtb version 6.7.1pre (5071a88) compiled by 'Marcel@Raven' on 2024-07-23

   xtb is free software: you can redistribute it and/or modify it under
   the terms of the GNU Lesser General Public License as published by
   the Free Software Foundation, either version 3 of the License, or
   (at your option) any later version.
   
   xtb is distributed in the hope that it will be useful,
   but WITHOUT ANY WARRANTY; without even the implied warranty of
   MERCHANTABILITY or FITNESS FOR A PARTICULAR PURPOSE.  See the
   GNU Lesser General Public License for more details.
   
   Cite this work as:
   * C. Bannwarth, E. Caldeweyher, S. Ehlert, A. Hansen, P. Pracht,
     J. Seibert, S. Spicher, S. Grimme, WIREs Comput. Mol. Sci., 2020, 11,
     e01493. DOI: 10.1002/wcms.1493
   
   for GFN2-xTB:
   * C. Bannwarth, S. Ehlert and S. Grimme., J. Chem. Theory Comput., 2019,
     15, 1652-1671. DOI: 10.1021/acs.jctc.8b01176
   for GFN1-xTB:
   * S. Grimme, C. Bannwarth, P. Shushkov, J. Chem. Theory Comput., 2017,
     13, 1989-2009. DOI: 10.1021/acs.jctc.7b00118
   for GFN0-xTB:
   * P. Pracht, E. Caldeweyher, S. Ehlert, S. Grimme, ChemRxiv, 2019, preprint.
     DOI: 10.26434/chemrxiv.8326202.v1
   for GFN-FF:
   * S. Spicher and S. Grimme, Angew. Chem. Int. Ed., 2020, 59, 15665-15673.
     DOI: 10.1002/anie.202004239
   
   for ALPB and GBSA implicit solvation:
   * S. Ehlert, M. Stahn, S. Spicher, S. Grimme, J. Chem. Theory Comput.,
     2021, 17, 4250-4261. DOI: 10.1021/acs.jctc.1c00471
   
   for ddCOSMO and CPCM-X implicit solvation:
   * M. Stahn, S. Ehlert, S. Grimme, J. Phys. Chem. A,
     2023, XX, XXXX-XXXX. DOI: 10.1021/acs.jpca.3c04382
   
   for DFT-D4:
   * E. Caldeweyher, C. Bannwarth and S. Grimme, J. Chem. Phys., 2017,
     147, 034112. DOI: 10.1063/1.4993215
   * E. Caldeweyher, S. Ehlert, A. Hansen, H. Neugebauer, S. Spicher,
     C. Bannwarth and S. Grimme, J. Chem. Phys., 2019, 150, 154122.
     DOI: 10.1063/1.5090222
   * E. Caldeweyher, J.-M. Mewes, S. Ehlert and S. Grimme, Phys. Chem. Chem. Phys.
     2020, 22, 8499-8512. DOI: 10.1039/D0CP00502A
   
   for sTDA-xTB:
   * S. Grimme and C. Bannwarth, J. Chem. Phys., 2016, 145, 054103.
     DOI: 10.1063/1.4959605
   
   in the mass-spec context:
   * V. Asgeirsson, C. Bauer and S. Grimme, Chem. Sci., 2017, 8, 4879.
     DOI: 10.1039/c7sc00601b
   * J. Koopman and S. Grimme, ACS Omega 2019, 4, 12, 15120-15133.
     DOI: 10.1021/acsomega.9b02011
   
   for metadynamics refer to:
   * S. Grimme, J. Chem. Theory Comput., 2019, 155, 2847-2862
     DOI: 10.1021/acs.jctc.9b00143
   
   for SPH calculations refer to:
   * S. Spicher and S. Grimme, J. Chem. Theory Comput., 2021, 17, 1701-1714
     DOI: 10.1021/acs.jctc.0c01306
   
   for ONIOM refer to:
   * C. Plett, A. Katbashev, S. Ehlert, S. Grimme, M. Bursch,
     Phys. Chem. Chem. Phys., 2023, 25, 17860-17868. DOI: 10.1039/D3CP02178E
   
   for DIPRO refer to:
   * J. Kohn, N. Gildemeister, S. Grimme, D. Fazzi, A. Hansen,
     J. Chem. Phys., 2023, just accepted.
   
   for PTB refer to:
   * S. Grimme, M. Mueller, A. Hansen, J. Chem. Phys., 2023, 158, 124111.
     DOI: 10.1063/5.0137838
   
   with help from (in alphabetical order)
   P. Atkinson, C. Bannwarth, F. Bohle, G. Brandenburg, E. Caldeweyher
   M. Checinski, S. Dohm, S. Ehlert, S. Ehrlich, I. Gerasimov, C. Hölzer
   A. Katbashev, J. Kohn, J. Koopman, C. Lavigne, S. Lehtola, F. März, M. Müller,
   F. Musil, H. Neugebauer, J. Pisarek, C. Plett, P. Pracht, F. Pultar,
   J. Seibert, P. Shushkov, S. Spicher, M. Stahn, M. Steiner, T. Strunk,
   J. Stückrath, T. Rose, and J. Unsleber
   
 * started run on 2025/06/23 at 11:32:33.076     
$$$$$$$$$$$$$$$$$$$$$$$$$$$$$$$$$$$$$$$$$$$$$$$$$$$$$$$$$$$$$$$$$$$$$$$$
 CONSTRAINTS & SCANS: DEBUG SECTION
$$$$$$$$$$$$$$$$$$$$$$$$$$$$$$$$$$$$$$$$$$$$$$$$$$$$$$$$$$$$$$$$$$$$$$$$
   ID    Z sym.   atoms
    1    6 C      1-6
    2    8 O      7-12
    3    1 H      13-26
$$$$$$$$$$$$$$$$$$$$$$$$$$$$$$$$$$$$$$$$$$$$$$$$$$$$$$$$$$$$$$$$$$$$$$$$

           -------------------------------------------------
          |                Calculation Setup                |
           -------------------------------------------------

          program call               : C:\Users\nkapa\Downloads\xtb-6.7.1pre-windows-x86_64\xtb-6.7.1\bin\xtb.EXE dft_tmp\486.xyz --gfn2 --parallel 8 --verbose
          coordinate file            : dft_tmp\486.xyz
          xtbhome directory          : C:\Users\nkapa\AppData\Roaming\SPB_Data
          path for xtb               : C:\Users\nkapa\Downloads\xtb-6.7.1pre-windows-x86_64\xtb-6.7.1\share\xtb
          xcontrol input file        : dft_tmp\486.xyz
          omp threads                :                     8


           -------------------------------------------------
          |                 G F N 2 - x T B                 |
           -------------------------------------------------

        Reference                      10.1021/acs.jctc.8b01176
      * Hamiltonian:
        H0-scaling (s, p, d)           1.850000    2.230000    2.230000
        zeta-weighting                 0.500000
      * Dispersion:
        s8                             2.700000
        a1                             0.520000
        a2                             5.000000
        s9                             5.000000
      * Repulsion:
        kExp                           1.500000    1.000000
        rExp                           1.000000
      * Coulomb:
        alpha                          2.000000
        third order                    shell-resolved
        anisotropic                    true
        a3                             3.000000
        a5                             4.000000
        cn-shift                       1.200000
        cn-exp                         4.000000
        max-rad                        5.000000


          ...................................................
          :                      SETUP                      :
          :.................................................:
          :  # basis functions                  62          :
          :  # atomic orbitals                  62          :
          :  # shells                           38          :
          :  # electrons                        74          :
          :  max. iterations                   250          :
          :  Hamiltonian                  GFN2-xTB          :
          :  restarted?                      false          :
          :  GBSA solvation                  false          :
          :  PC potential                    false          :
          :  electronic temp.          300.0000000     K    :
          :  accuracy                    1.0000000          :
          :  -> integral cutoff          0.2500000E+02      :
          :  -> integral neglect         0.1000000E-07      :
          :  -> SCF convergence          0.1000000E-05 Eh   :
          :  -> wf. convergence          0.1000000E-03 e    :
          :  Broyden damping             0.4000000          :
          :  net charge                          0          :
          :  unpaired electrons                  0          :
          ...................................................

 iter      E             dE          RMSdq      gap      omega  full diag
   1    -44.5838317 -0.445838E+02  0.435E+00   10.49       0.0  T
   2    -44.6210632 -0.372316E-01  0.234E+00   10.33       1.0  T
   3    -44.6228022 -0.173896E-02  0.672E-01   10.32       1.0  T
   4    -44.6232233 -0.421061E-03  0.139E-01   10.32       1.0  T
   5    -44.6232806 -0.573801E-04  0.486E-02   10.35       1.0  T
   6    -44.6232931 -0.124522E-04  0.219E-02   10.35       1.0  T
   7    -44.6232940 -0.894416E-06  0.526E-03   10.35       3.7  T
   8    -44.6232942 -0.187708E-06  0.190E-03   10.35      10.3  T
   9    -44.6232942 -0.829004E-08  0.571E-04   10.35      34.4  T
  10    -44.6232942 -0.225158E-08  0.215E-04   10.35      91.4  T

   *** convergence criteria satisfied after 10 iterations ***

         #    Occupation            Energy/Eh            Energy/eV
      -------------------------------------------------------------
         1        2.0000           -0.7094162             -19.3042
       ...           ...                  ...                  ...
        31        2.0000           -0.4497684             -12.2388
        32        2.0000           -0.4454982             -12.1226
        33        2.0000           -0.4381728             -11.9233
        34        2.0000           -0.4269741             -11.6186
        35        2.0000           -0.4215744             -11.4716
        36        2.0000           -0.4083908             -11.1129
        37        2.0000           -0.3924137             -10.6781 (HOMO)
        38                         -0.0118850              -0.3234 (LUMO)
        39                         -0.0053630              -0.1459
        40                          0.0089625               0.2439
        41                          0.0171276               0.4661
        42                          0.0357746               0.9735
       ...                                ...                  ...
        62                          0.2693486               7.3293
      -------------------------------------------------------------
                  HL-Gap            0.3805287 Eh           10.3547 eV
             Fermi-level           -0.2021493 Eh           -5.5008 eV

 SCC (total)                   0 d,  0 h,  0 min,  0.062 sec
 SCC setup                      ...        0 min,  0.000 sec (  0.000%)
 Dispersion                     ...        0 min,  0.001 sec (  1.613%)
 classical contributions        ...        0 min,  0.000 sec (  0.000%)
 integral evaluation            ...        0 min,  0.024 sec ( 38.710%)
 iterations                     ...        0 min,  0.028 sec ( 45.162%)
 molecular gradient             ...        0 min,  0.009 sec ( 14.516%)
 printout                       ...        0 min,  0.000 sec (  0.000%)

         :::::::::::::::::::::::::::::::::::::::::::::::::::::
         ::                     SUMMARY                     ::
         :::::::::::::::::::::::::::::::::::::::::::::::::::::
         :: total energy             -44.332295989397 Eh    ::
         :: gradient norm              0.088262647155 Eh/a0 ::
         :: HOMO-LUMO gap             10.354714054568 eV    ::
         ::.................................................::
         :: HOMO orbital eigv.       -10.678120785486 eV    ::
         :: LUMO orbital eigv.        -0.323406730918 eV    ::
         ::.................................................::
         :: SCC energy               -44.623157496413 Eh    ::
         :: -> isotropic ES            0.141452641026 Eh    ::
         :: -> anisotropic ES          0.007130124757 Eh    ::
         :: -> anisotropic XC         -0.006970421299 Eh    ::
         :: -> dispersion             -0.018962310196 Eh    ::
         :: repulsion energy           0.290861507016 Eh    ::
         :: add. restraining           0.000000000000 Eh    ::
         :: total charge               0.000000000000 e     ::
         ::.................................................::
         :: atomisation energy         6.491503684707 Eh    ::
         :::::::::::::::::::::::::::::::::::::::::::::::::::::

           -------------------------------------------------
          |                Property Printout                |
           -------------------------------------------------

    * Orbital Energies and Occupations

         #    Occupation            Energy/Eh            Energy/eV
      -------------------------------------------------------------
         1        2.0000           -0.7094162             -19.3042
       ...           ...                  ...                  ...
        25        2.0000           -0.5083444             -13.8328
        26        2.0000           -0.4889429             -13.3048
        27        2.0000           -0.4796324             -13.0515
        28        2.0000           -0.4778272             -13.0023
        29        2.0000           -0.4719409             -12.8422
        30        2.0000           -0.4563975             -12.4192
        31        2.0000           -0.4497684             -12.2388
        32        2.0000           -0.4454982             -12.1226
        33        2.0000           -0.4381728             -11.9233
        34        2.0000           -0.4269741             -11.6186
        35        2.0000           -0.4215744             -11.4716
        36        2.0000           -0.4083908             -11.1129
        37        2.0000           -0.3924137             -10.6781 (HOMO)
        38                         -0.0118850              -0.3234 (LUMO)
        39                         -0.0053630              -0.1459
        40                          0.0089625               0.2439
        41                          0.0171276               0.4661
        42                          0.0357746               0.9735
        43                          0.0605886               1.6487
        44                          0.0640104               1.7418
        45                          0.0725555               1.9743
        46                          0.0864997               2.3538
        47                          0.0885847               2.4105
        48                          0.1026156               2.7923
       ...                                ...                  ...
        62                          0.2693486               7.3293
      -------------------------------------------------------------
                  HL-Gap            0.3805287 Eh           10.3547 eV
             Fermi-level           -0.2021493 Eh           -5.5008 eV

     #   Z          covCN         q      C6AA      α(0)
     1   6 C        3.668     0.072    19.612     6.349
     2   6 C        3.719     0.097    19.081     6.239
     3   6 C        3.719     0.100    19.042     6.233
     4   6 C        3.718     0.099    19.060     6.236
     5   6 C        3.719     0.085    19.278     6.272
     6   6 C        3.668     0.067    19.704     6.364
     7   8 O        1.652    -0.420    21.248     6.223
     8   8 O        1.651    -0.419    21.217     6.218
     9   8 O        1.652    -0.416    21.172     6.211
    10   8 O        1.652    -0.427    21.381     6.242
    11   8 O        1.652    -0.433    21.497     6.259
    12   8 O        1.652    -0.444    21.729     6.293
    13   1 H        0.921     0.033     2.552     2.498
    14   1 H        0.921     0.023     2.687     2.564
    15   1 H        0.921     0.073     2.054     2.242
    16   1 H        0.921     0.014     2.833     2.633
    17   1 H        0.920     0.010     2.892     2.660
    18   1 H        0.921     0.067     2.119     2.277
    19   1 H        0.921     0.012     2.858     2.644
    20   1 H        0.921     0.038     2.476     2.461
    21   1 H        0.801     0.295     0.738     1.350
    22   1 H        0.801     0.286     0.764     1.374
    23   1 H        0.801     0.301     0.717     1.331
    24   1 H        0.801     0.297     0.730     1.343
    25   1 H        0.801     0.297     0.732     1.344
    26   1 H        0.801     0.293     0.743     1.354

 Mol. C6AA /au·bohr⁶  :       5158.178985
 Mol. C8AA /au·bohr⁸  :     107517.794666
 Mol. α(0) /au        :        103.210852


Wiberg/Mayer (AO) data.
largest (>0.10) Wiberg bond orders for each atom

 ---------------------------------------------------------------------------
     #   Z sym  total        # sym  WBO       # sym  WBO       # sym  WBO
 ---------------------------------------------------------------------------
     1   6 C    3.956 --    12 O    0.998     2 C    0.980    14 H    0.969
                            13 H    0.968
     2   6 C    3.957 --    11 O    1.005     1 C    0.980     3 C    0.956
                            15 H    0.956
     3   6 C    3.960 --    10 O    1.000     4 C    0.968    16 H    0.961
                             2 C    0.956
     4   6 C    3.965 --     9 O    1.007     3 C    0.968    17 H    0.960
                             5 C    0.953
     5   6 C    3.956 --     8 O    1.007     6 C    0.969    18 H    0.956
                             4 C    0.953
     6   6 C    3.963 --     7 O    1.013     5 C    0.969    19 H    0.969
                            20 H    0.969
     7   8 O    1.974 --     6 C    1.013    21 H    0.899
     8   8 O    1.985 --     5 C    1.007    22 H    0.898
     9   8 O    1.978 --     4 C    1.007    23 H    0.895
    10   8 O    1.971 --     3 C    1.000    24 H    0.899
    11   8 O    1.973 --     2 C    1.005    25 H    0.893
    12   8 O    1.952 --     1 C    0.998    26 H    0.899
    13   1 H    0.998 --     1 C    0.968
    14   1 H    0.999 --     1 C    0.969
    15   1 H    0.995 --     2 C    0.956
    16   1 H    1.000 --     3 C    0.961
    17   1 H    1.000 --     4 C    0.960
    18   1 H    0.996 --     5 C    0.956
    19   1 H    1.000 --     6 C    0.969
    20   1 H    0.999 --     6 C    0.969
    21   1 H    0.913 --     7 O    0.899
    22   1 H    0.918 --     8 O    0.898
    23   1 H    0.909 --     9 O    0.895
    24   1 H    0.912 --    10 O    0.899
    25   1 H    0.912 --    11 O    0.893
    26   1 H    0.914 --    12 O    0.899
 ---------------------------------------------------------------------------

Topologies differ in total number of bonds
Writing topology from bond orders to xtbtopo.mol

molecular dipole:
                 x           y           z       tot (Debye)
 q only:       -0.827       0.660      -0.667
   full:       -1.195       0.991      -1.091       4.822
molecular quadrupole (traceless):
                xx          xy          yy          xz          yz          zz
 q only:       -1.815      -7.001       8.561      -0.320       1.798      -6.745
  q+dip:       -2.531      -9.992      12.035      -0.472       3.301      -9.505
   full:       -2.872     -10.354      12.270      -0.516       3.056      -9.398


           -------------------------------------------------
          | TOTAL ENERGY              -44.332295989397 Eh   |
          | GRADIENT NORM               0.088262647155 Eh/α |
          | HOMO-LUMO GAP              10.354714054568 eV   |
           -------------------------------------------------
########################################################################
[WARNING] Runtime exception occurred
-2- restart_readRestart: Dimension missmatch in restart file.
-1- restart_readRestart: Number of electron missmatch in restart file.
########################################################################

------------------------------------------------------------------------
 unit  open   action     filename
  129 false : read       dft_tmp\486.xyz
  129 false : read       dft_tmp\486.xyz
  129 false : read       dft_tmp\486.xyz
  129 false : read       C:\Users\nkapa\Downloads\xtb-6.7.1pre-windows-x86_64\xtb-6.7.1\share\xtb\param_gfn2-xtb.txt
  129 false : read       xtbrestart
  129 false : replaced   charges
  129 false : replaced   wbo
  129 false : replaced   xtbtopo.mol
  129 false : replaced   xtbrestart

------------------------------------------------------------------------
 * finished run on 2025/06/23 at 11:32:33.199     
------------------------------------------------------------------------
 total:
 * wall-time:     0 d,  0 h,  0 min,  0.121 sec
 *  cpu-time:     0 d,  0 h,  0 min,  0.578 sec
 * ratio c/w:     4.778 speedup
 SCF:
 * wall-time:     0 d,  0 h,  0 min,  0.064 sec
 *  cpu-time:     0 d,  0 h,  0 min,  0.328 sec
 * ratio c/w:     5.127 speedup

normal termination of xtb
