24

C 1.959578 -0.347320 -0.822152
C 1.146180 -0.340499 0.490121
C 0.097467 0.805835 0.582883
C -1.030343 0.786870 -0.499769
C -1.863486 -0.518656 -0.563525
C -2.350604 -0.963626 0.791744
O -3.144809 -0.280306 1.418341
O -1.116854 -1.540708 -1.171109
O -1.912007 1.855936 -0.256814
O 0.738775 2.058779 0.604032
O 2.008750 -0.291698 1.600542
O 2.803580 -1.466645 -0.862972
H 1.278111 -0.408143 -1.693678
H 2.556292 0.586886 -0.927084
H 0.609481 -1.308263 0.559220
H -0.398500 0.696382 1.571629
H -0.571135 0.927878 -1.506010
H -2.758352 -0.314837 -1.197951
H -2.007421 -1.902721 1.214256
H -1.758481 -2.251562 -1.434919
H -1.505069 2.671157 -0.651657
H 1.051722 2.256621 -0.316412
H 2.561005 0.529544 1.520926
H 3.606120 -1.240906 -0.323949
