      -----------------------------------------------------------      
     |                   =====================                   |     
     |                           x T B                           |     
     |                   =====================                   |     
     |                         S. Grimme                         |     
     |          Mulliken Center for Theoretical Chemistry        |     
     |                    University of Bonn                     |     
      -----------------------------------------------------------      

   * xtb version 6.7.1pre (5071a88) compiled by 'Marcel@Raven' on 2024-07-23

   xtb is free software: you can redistribute it and/or modify it under
   the terms of the GNU Lesser General Public License as published by
   the Free Software Foundation, either version 3 of the License, or
   (at your option) any later version.
   
   xtb is distributed in the hope that it will be useful,
   but WITHOUT ANY WARRANTY; without even the implied warranty of
   MERCHANTABILITY or FITNESS FOR A PARTICULAR PURPOSE.  See the
   GNU Lesser General Public License for more details.
   
   Cite this work as:
   * C. Bannwarth, E. Caldeweyher, S. Ehlert, A. Hansen, P. Pracht,
     J. Seibert, S. Spicher, S. Grimme, WIREs Comput. Mol. Sci., 2020, 11,
     e01493. DOI: 10.1002/wcms.1493
   
   for GFN2-xTB:
   * C. Bannwarth, S. Ehlert and S. Grimme., J. Chem. Theory Comput., 2019,
     15, 1652-1671. DOI: 10.1021/acs.jctc.8b01176
   for GFN1-xTB:
   * S. Grimme, C. Bannwarth, P. Shushkov, J. Chem. Theory Comput., 2017,
     13, 1989-2009. DOI: 10.1021/acs.jctc.7b00118
   for GFN0-xTB:
   * P. Pracht, E. Caldeweyher, S. Ehlert, S. Grimme, ChemRxiv, 2019, preprint.
     DOI: 10.26434/chemrxiv.8326202.v1
   for GFN-FF:
   * S. Spicher and S. Grimme, Angew. Chem. Int. Ed., 2020, 59, 15665-15673.
     DOI: 10.1002/anie.202004239
   
   for ALPB and GBSA implicit solvation:
   * S. Ehlert, M. Stahn, S. Spicher, S. Grimme, J. Chem. Theory Comput.,
     2021, 17, 4250-4261. DOI: 10.1021/acs.jctc.1c00471
   
   for ddCOSMO and CPCM-X implicit solvation:
   * M. Stahn, S. Ehlert, S. Grimme, J. Phys. Chem. A,
     2023, XX, XXXX-XXXX. DOI: 10.1021/acs.jpca.3c04382
   
   for DFT-D4:
   * E. Caldeweyher, C. Bannwarth and S. Grimme, J. Chem. Phys., 2017,
     147, 034112. DOI: 10.1063/1.4993215
   * E. Caldeweyher, S. Ehlert, A. Hansen, H. Neugebauer, S. Spicher,
     C. Bannwarth and S. Grimme, J. Chem. Phys., 2019, 150, 154122.
     DOI: 10.1063/1.5090222
   * E. Caldeweyher, J.-M. Mewes, S. Ehlert and S. Grimme, Phys. Chem. Chem. Phys.
     2020, 22, 8499-8512. DOI: 10.1039/D0CP00502A
   
   for sTDA-xTB:
   * S. Grimme and C. Bannwarth, J. Chem. Phys., 2016, 145, 054103.
     DOI: 10.1063/1.4959605
   
   in the mass-spec context:
   * V. Asgeirsson, C. Bauer and S. Grimme, Chem. Sci., 2017, 8, 4879.
     DOI: 10.1039/c7sc00601b
   * J. Koopman and S. Grimme, ACS Omega 2019, 4, 12, 15120-15133.
     DOI: 10.1021/acsomega.9b02011
   
   for metadynamics refer to:
   * S. Grimme, J. Chem. Theory Comput., 2019, 155, 2847-2862
     DOI: 10.1021/acs.jctc.9b00143
   
   for SPH calculations refer to:
   * S. Spicher and S. Grimme, J. Chem. Theory Comput., 2021, 17, 1701-1714
     DOI: 10.1021/acs.jctc.0c01306
   
   for ONIOM refer to:
   * C. Plett, A. Katbashev, S. Ehlert, S. Grimme, M. Bursch,
     Phys. Chem. Chem. Phys., 2023, 25, 17860-17868. DOI: 10.1039/D3CP02178E
   
   for DIPRO refer to:
   * J. Kohn, N. Gildemeister, S. Grimme, D. Fazzi, A. Hansen,
     J. Chem. Phys., 2023, just accepted.
   
   for PTB refer to:
   * S. Grimme, M. Mueller, A. Hansen, J. Chem. Phys., 2023, 158, 124111.
     DOI: 10.1063/5.0137838
   
   with help from (in alphabetical order)
   P. Atkinson, C. Bannwarth, F. Bohle, G. Brandenburg, E. Caldeweyher
   M. Checinski, S. Dohm, S. Ehlert, S. Ehrlich, I. Gerasimov, C. Hölzer
   A. Katbashev, J. Kohn, J. Koopman, C. Lavigne, S. Lehtola, F. März, M. Müller,
   F. Musil, H. Neugebauer, J. Pisarek, C. Plett, P. Pracht, F. Pultar,
   J. Seibert, P. Shushkov, S. Spicher, M. Stahn, M. Steiner, T. Strunk,
   J. Stückrath, T. Rose, and J. Unsleber
   
 * started run on 2025/06/23 at 11:32:33.396     
$$$$$$$$$$$$$$$$$$$$$$$$$$$$$$$$$$$$$$$$$$$$$$$$$$$$$$$$$$$$$$$$$$$$$$$$
 CONSTRAINTS & SCANS: DEBUG SECTION
$$$$$$$$$$$$$$$$$$$$$$$$$$$$$$$$$$$$$$$$$$$$$$$$$$$$$$$$$$$$$$$$$$$$$$$$
   ID    Z sym.   atoms
    1    6 C      1-6
    2    8 O      7-12
    3    1 H      13-26
$$$$$$$$$$$$$$$$$$$$$$$$$$$$$$$$$$$$$$$$$$$$$$$$$$$$$$$$$$$$$$$$$$$$$$$$

           -------------------------------------------------
          |                Calculation Setup                |
           -------------------------------------------------

          program call               : C:\Users\nkapa\Downloads\xtb-6.7.1pre-windows-x86_64\xtb-6.7.1\bin\xtb.EXE dft_tmp\488.xyz --gfn2 --parallel 8 --verbose
          coordinate file            : dft_tmp\488.xyz
          xtbhome directory          : C:\Users\nkapa\AppData\Roaming\SPB_Data
          path for xtb               : C:\Users\nkapa\Downloads\xtb-6.7.1pre-windows-x86_64\xtb-6.7.1\share\xtb
          xcontrol input file        : dft_tmp\488.xyz
          omp threads                :                     8


           -------------------------------------------------
          |                 G F N 2 - x T B                 |
           -------------------------------------------------

        Reference                      10.1021/acs.jctc.8b01176
      * Hamiltonian:
        H0-scaling (s, p, d)           1.850000    2.230000    2.230000
        zeta-weighting                 0.500000
      * Dispersion:
        s8                             2.700000
        a1                             0.520000
        a2                             5.000000
        s9                             5.000000
      * Repulsion:
        kExp                           1.500000    1.000000
        rExp                           1.000000
      * Coulomb:
        alpha                          2.000000
        third order                    shell-resolved
        anisotropic                    true
        a3                             3.000000
        a5                             4.000000
        cn-shift                       1.200000
        cn-exp                         4.000000
        max-rad                        5.000000


          ...................................................
          :                      SETUP                      :
          :.................................................:
          :  # basis functions                  62          :
          :  # atomic orbitals                  62          :
          :  # shells                           38          :
          :  # electrons                        74          :
          :  max. iterations                   250          :
          :  Hamiltonian                  GFN2-xTB          :
          :  restarted?                      false          :
          :  GBSA solvation                  false          :
          :  PC potential                    false          :
          :  electronic temp.          300.0000000     K    :
          :  accuracy                    1.0000000          :
          :  -> integral cutoff          0.2500000E+02      :
          :  -> integral neglect         0.1000000E-07      :
          :  -> SCF convergence          0.1000000E-05 Eh   :
          :  -> wf. convergence          0.1000000E-03 e    :
          :  Broyden damping             0.4000000          :
          :  net charge                          0          :
          :  unpaired electrons                  0          :
          ...................................................

 iter      E             dE          RMSdq      gap      omega  full diag
   1    -44.5777162 -0.445777E+02  0.438E+00   10.47       0.0  T
   2    -44.6105986 -0.328825E-01  0.237E+00   10.37       1.0  T
   3    -44.6124966 -0.189799E-02  0.613E-01   10.30       1.0  T
   4    -44.6127936 -0.297007E-03  0.137E-01   10.31       1.0  T
   5    -44.6128474 -0.537610E-04  0.366E-02   10.34       1.0  T
   6    -44.6128519 -0.452856E-05  0.191E-02   10.33       1.0  T
   7    -44.6128531 -0.118609E-05  0.462E-03   10.33       4.2  T
   8    -44.6128532 -0.126854E-06  0.207E-03   10.34       9.5  T
   9    -44.6128532 -0.349882E-07  0.425E-04   10.34      46.1  T
  10    -44.6128532 -0.145663E-08  0.246E-04   10.34      79.6  T

   *** convergence criteria satisfied after 10 iterations ***

         #    Occupation            Energy/Eh            Energy/eV
      -------------------------------------------------------------
         1        2.0000           -0.6998723             -19.0445
       ...           ...                  ...                  ...
        31        2.0000           -0.4476705             -12.1817
        32        2.0000           -0.4402630             -11.9802
        33        2.0000           -0.4315197             -11.7422
        34        2.0000           -0.4172158             -11.3530
        35        2.0000           -0.4095951             -11.1456
        36        2.0000           -0.4050239             -11.0213
        37        2.0000           -0.3924390             -10.6788 (HOMO)
        38                         -0.0126255              -0.3436 (LUMO)
        39                         -0.0063830              -0.1737
        40                          0.0049873               0.1357
        41                          0.0143259               0.3898
        42                          0.0422528               1.1498
       ...                                ...                  ...
        62                          0.2772782               7.5451
      -------------------------------------------------------------
                  HL-Gap            0.3798135 Eh           10.3353 eV
             Fermi-level           -0.2025322 Eh           -5.5112 eV

 SCC (total)                   0 d,  0 h,  0 min,  0.020 sec
 SCC setup                      ...        0 min,  0.000 sec (  0.000%)
 Dispersion                     ...        0 min,  0.001 sec (  5.000%)
 classical contributions        ...        0 min,  0.000 sec (  0.000%)
 integral evaluation            ...        0 min,  0.001 sec (  5.000%)
 iterations                     ...        0 min,  0.015 sec ( 75.001%)
 molecular gradient             ...        0 min,  0.002 sec ( 10.000%)
 printout                       ...        0 min,  0.001 sec (  5.000%)

         :::::::::::::::::::::::::::::::::::::::::::::::::::::
         ::                     SUMMARY                     ::
         :::::::::::::::::::::::::::::::::::::::::::::::::::::
         :: total energy             -44.322013723045 Eh    ::
         :: gradient norm              0.093828051364 Eh/a0 ::
         :: HOMO-LUMO gap             10.335250273272 eV    ::
         ::.................................................::
         :: HOMO orbital eigv.       -10.678807409081 eV    ::
         :: LUMO orbital eigv.        -0.343557135810 eV    ::
         ::.................................................::
         :: SCC energy               -44.612758272275 Eh    ::
         :: -> isotropic ES            0.145102562956 Eh    ::
         :: -> anisotropic ES          0.008848784118 Eh    ::
         :: -> anisotropic XC         -0.007354843621 Eh    ::
         :: -> dispersion             -0.018996754437 Eh    ::
         :: repulsion energy           0.290744549231 Eh    ::
         :: add. restraining           0.000000000000 Eh    ::
         :: total charge              -0.000000000000 e     ::
         ::.................................................::
         :: atomisation energy         6.481221418355 Eh    ::
         :::::::::::::::::::::::::::::::::::::::::::::::::::::

           -------------------------------------------------
          |                Property Printout                |
           -------------------------------------------------

    * Orbital Energies and Occupations

         #    Occupation            Energy/Eh            Energy/eV
      -------------------------------------------------------------
         1        2.0000           -0.6998723             -19.0445
       ...           ...                  ...                  ...
        25        2.0000           -0.4984553             -13.5637
        26        2.0000           -0.4877103             -13.2713
        27        2.0000           -0.4811950             -13.0940
        28        2.0000           -0.4759993             -12.9526
        29        2.0000           -0.4680180             -12.7354
        30        2.0000           -0.4526829             -12.3181
        31        2.0000           -0.4476705             -12.1817
        32        2.0000           -0.4402630             -11.9802
        33        2.0000           -0.4315197             -11.7422
        34        2.0000           -0.4172158             -11.3530
        35        2.0000           -0.4095951             -11.1456
        36        2.0000           -0.4050239             -11.0213
        37        2.0000           -0.3924390             -10.6788 (HOMO)
        38                         -0.0126255              -0.3436 (LUMO)
        39                         -0.0063830              -0.1737
        40                          0.0049873               0.1357
        41                          0.0143259               0.3898
        42                          0.0422528               1.1498
        43                          0.0630681               1.7162
        44                          0.0742195               2.0196
        45                          0.0865877               2.3562
        46                          0.0911538               2.4804
        47                          0.0975690               2.6550
        48                          0.1024946               2.7890
       ...                                ...                  ...
        62                          0.2772782               7.5451
      -------------------------------------------------------------
                  HL-Gap            0.3798135 Eh           10.3353 eV
             Fermi-level           -0.2025322 Eh           -5.5112 eV

     #   Z          covCN         q      C6AA      α(0)
     1   6 C        3.669     0.082    19.447     6.322
     2   6 C        3.719     0.107    18.930     6.214
     3   6 C        3.718     0.100    19.048     6.234
     4   6 C        3.718     0.093    19.149     6.251
     5   6 C        3.719     0.098    19.075     6.239
     6   6 C        3.668     0.078    19.522     6.335
     7   8 O        1.652    -0.431    21.459     6.253
     8   8 O        1.652    -0.426    21.364     6.239
     9   8 O        1.652    -0.431    21.459     6.253
    10   8 O        1.652    -0.431    21.469     6.255
    11   8 O        1.652    -0.429    21.418     6.247
    12   8 O        1.652    -0.427    21.380     6.242
    13   1 H        0.921     0.028     2.619     2.531
    14   1 H        0.921     0.022     2.702     2.570
    15   1 H        0.920     0.029     2.596     2.520
    16   1 H        0.920     0.039     2.458     2.452
    17   1 H        0.921     0.030     2.585     2.515
    18   1 H        0.921     0.053     2.289     2.366
    19   1 H        0.922     0.026     2.640     2.541
    20   1 H        0.921     0.030     2.593     2.519
    21   1 H        0.801     0.289     0.757     1.367
    22   1 H        0.801     0.292     0.746     1.357
    23   1 H        0.801     0.294     0.741     1.353
    24   1 H        0.801     0.300     0.722     1.335
    25   1 H        0.801     0.294     0.739     1.351
    26   1 H        0.801     0.291     0.750     1.361

 Mol. C6AA /au·bohr⁶  :       5158.944802
 Mol. C8AA /au·bohr⁸  :     107466.357710
 Mol. α(0) /au        :        103.221540


Wiberg/Mayer (AO) data.
largest (>0.10) Wiberg bond orders for each atom

 ---------------------------------------------------------------------------
     #   Z sym  total        # sym  WBO       # sym  WBO       # sym  WBO
 ---------------------------------------------------------------------------
     1   6 C    3.963 --    12 O    1.005     2 C    0.983    14 H    0.968
                            13 H    0.968
     2   6 C    3.960 --    11 O    0.996     1 C    0.983    15 H    0.965
                             3 C    0.956
     3   6 C    3.958 --    10 O    0.999     4 C    0.968    16 H    0.962
                             2 C    0.956
     4   6 C    3.957 --     9 O    0.997     3 C    0.968    17 H    0.961
                             5 C    0.955
     5   6 C    3.959 --     8 O    1.004     6 C    0.982    18 H    0.959
                             4 C    0.955
     6   6 C    3.959 --     7 O    1.001     5 C    0.982    19 H    0.968
                            20 H    0.967
     7   8 O    1.956 --     6 C    1.001    21 H    0.902
     8   8 O    1.977 --     5 C    1.004    22 H    0.895
     9   8 O    1.972 --     4 C    0.997    23 H    0.900
    10   8 O    1.971 --     3 C    0.999    24 H    0.897
    11   8 O    1.970 --     2 C    0.996    25 H    0.901
    12   8 O    1.961 --     1 C    1.005    26 H    0.901
    13   1 H    0.999 --     1 C    0.968
    14   1 H    0.999 --     1 C    0.968
    15   1 H    0.999 --     2 C    0.965
    16   1 H    0.998 --     3 C    0.962
    17   1 H    0.999 --     4 C    0.961
    18   1 H    0.997 --     5 C    0.959
    19   1 H    0.999 --     6 C    0.968
    20   1 H    0.999 --     6 C    0.967
    21   1 H    0.916 --     7 O    0.902
    22   1 H    0.915 --     8 O    0.895
    23   1 H    0.914 --     9 O    0.900
    24   1 H    0.910 --    10 O    0.897
    25   1 H    0.913 --    11 O    0.901
    26   1 H    0.915 --    12 O    0.901
 ---------------------------------------------------------------------------

Topologies differ in total number of bonds
Writing topology from bond orders to xtbtopo.mol

molecular dipole:
                 x           y           z       tot (Debye)
 q only:       -0.650       0.135       0.942
   full:       -0.902       0.180       1.348       4.147
molecular quadrupole (traceless):
                xx          xy          yy          xz          yz          zz
 q only:       -0.193      -1.747      11.696       3.923      -3.042     -11.503
  q+dip:        0.139      -1.874      16.001       5.692      -5.001     -16.140
   full:       -0.331      -2.300      16.328       5.666      -4.726     -15.997


           -------------------------------------------------
          | TOTAL ENERGY              -44.322013723045 Eh   |
          | GRADIENT NORM               0.093828051364 Eh/α |
          | HOMO-LUMO GAP              10.335250273272 eV   |
           -------------------------------------------------
########################################################################
[WARNING] Runtime exception occurred
-2- restart_readRestart: Dimension missmatch in restart file.
-1- restart_readRestart: Number of electron missmatch in restart file.
########################################################################

------------------------------------------------------------------------
 unit  open   action     filename
  129 false : read       dft_tmp\488.xyz
  129 false : read       dft_tmp\488.xyz
  129 false : read       dft_tmp\488.xyz
  129 false : read       C:\Users\nkapa\Downloads\xtb-6.7.1pre-windows-x86_64\xtb-6.7.1\share\xtb\param_gfn2-xtb.txt
  129 false : read       xtbrestart
  129 false : replaced   charges
  129 false : replaced   wbo
  129 false : replaced   xtbtopo.mol
  129 false : replaced   xtbrestart

------------------------------------------------------------------------
 * finished run on 2025/06/23 at 11:32:33.457     
------------------------------------------------------------------------
 total:
 * wall-time:     0 d,  0 h,  0 min,  0.060 sec
 *  cpu-time:     0 d,  0 h,  0 min,  0.359 sec
 * ratio c/w:     5.990 speedup
 SCF:
 * wall-time:     0 d,  0 h,  0 min,  0.020 sec
 *  cpu-time:     0 d,  0 h,  0 min,  0.141 sec
 * ratio c/w:     7.031 speedup

normal termination of xtb
