20

C -1.984024 -0.102143 -0.165058
C -0.698980 -0.879551 -0.506919
C 0.390999 -0.784566 0.599842
C 0.927590 0.646199 0.894516
C 1.556589 1.324906 -0.297859
O 2.617188 0.933521 -0.758965
O 1.822305 0.630755 1.979567
O 1.443304 -1.682435 0.339124
O -0.189496 -0.463744 -1.748877
O -1.822040 1.265440 -0.424425
H -2.257237 -0.261314 0.902242
H -2.814892 -0.493495 -0.793975
H -0.978021 -1.957700 -0.575769
H -0.085892 -1.134619 1.541992
H 0.067849 1.271376 1.211158
H 1.069142 2.185840 -0.743844
H 2.613754 0.091781 1.717484
H 1.806176 -1.478990 -0.560694
H -0.807880 -0.809664 -2.444564
H -2.676433 1.698404 -0.164976
