      -----------------------------------------------------------      
     |                   =====================                   |     
     |                           x T B                           |     
     |                   =====================                   |     
     |                         S. Grimme                         |     
     |          Mulliken Center for Theoretical Chemistry        |     
     |                    University of Bonn                     |     
      -----------------------------------------------------------      

   * xtb version 6.7.1pre (5071a88) compiled by 'Marcel@Raven' on 2024-07-23

   xtb is free software: you can redistribute it and/or modify it under
   the terms of the GNU Lesser General Public License as published by
   the Free Software Foundation, either version 3 of the License, or
   (at your option) any later version.
   
   xtb is distributed in the hope that it will be useful,
   but WITHOUT ANY WARRANTY; without even the implied warranty of
   MERCHANTABILITY or FITNESS FOR A PARTICULAR PURPOSE.  See the
   GNU Lesser General Public License for more details.
   
   Cite this work as:
   * C. Bannwarth, E. Caldeweyher, S. Ehlert, A. Hansen, P. Pracht,
     J. Seibert, S. Spicher, S. Grimme, WIREs Comput. Mol. Sci., 2020, 11,
     e01493. DOI: 10.1002/wcms.1493
   
   for GFN2-xTB:
   * C. Bannwarth, S. Ehlert and S. Grimme., J. Chem. Theory Comput., 2019,
     15, 1652-1671. DOI: 10.1021/acs.jctc.8b01176
   for GFN1-xTB:
   * S. Grimme, C. Bannwarth, P. Shushkov, J. Chem. Theory Comput., 2017,
     13, 1989-2009. DOI: 10.1021/acs.jctc.7b00118
   for GFN0-xTB:
   * P. Pracht, E. Caldeweyher, S. Ehlert, S. Grimme, ChemRxiv, 2019, preprint.
     DOI: 10.26434/chemrxiv.8326202.v1
   for GFN-FF:
   * S. Spicher and S. Grimme, Angew. Chem. Int. Ed., 2020, 59, 15665-15673.
     DOI: 10.1002/anie.202004239
   
   for ALPB and GBSA implicit solvation:
   * S. Ehlert, M. Stahn, S. Spicher, S. Grimme, J. Chem. Theory Comput.,
     2021, 17, 4250-4261. DOI: 10.1021/acs.jctc.1c00471
   
   for ddCOSMO and CPCM-X implicit solvation:
   * M. Stahn, S. Ehlert, S. Grimme, J. Phys. Chem. A,
     2023, XX, XXXX-XXXX. DOI: 10.1021/acs.jpca.3c04382
   
   for DFT-D4:
   * E. Caldeweyher, C. Bannwarth and S. Grimme, J. Chem. Phys., 2017,
     147, 034112. DOI: 10.1063/1.4993215
   * E. Caldeweyher, S. Ehlert, A. Hansen, H. Neugebauer, S. Spicher,
     C. Bannwarth and S. Grimme, J. Chem. Phys., 2019, 150, 154122.
     DOI: 10.1063/1.5090222
   * E. Caldeweyher, J.-M. Mewes, S. Ehlert and S. Grimme, Phys. Chem. Chem. Phys.
     2020, 22, 8499-8512. DOI: 10.1039/D0CP00502A
   
   for sTDA-xTB:
   * S. Grimme and C. Bannwarth, J. Chem. Phys., 2016, 145, 054103.
     DOI: 10.1063/1.4959605
   
   in the mass-spec context:
   * V. Asgeirsson, C. Bauer and S. Grimme, Chem. Sci., 2017, 8, 4879.
     DOI: 10.1039/c7sc00601b
   * J. Koopman and S. Grimme, ACS Omega 2019, 4, 12, 15120-15133.
     DOI: 10.1021/acsomega.9b02011
   
   for metadynamics refer to:
   * S. Grimme, J. Chem. Theory Comput., 2019, 155, 2847-2862
     DOI: 10.1021/acs.jctc.9b00143
   
   for SPH calculations refer to:
   * S. Spicher and S. Grimme, J. Chem. Theory Comput., 2021, 17, 1701-1714
     DOI: 10.1021/acs.jctc.0c01306
   
   for ONIOM refer to:
   * C. Plett, A. Katbashev, S. Ehlert, S. Grimme, M. Bursch,
     Phys. Chem. Chem. Phys., 2023, 25, 17860-17868. DOI: 10.1039/D3CP02178E
   
   for DIPRO refer to:
   * J. Kohn, N. Gildemeister, S. Grimme, D. Fazzi, A. Hansen,
     J. Chem. Phys., 2023, just accepted.
   
   for PTB refer to:
   * S. Grimme, M. Mueller, A. Hansen, J. Chem. Phys., 2023, 158, 124111.
     DOI: 10.1063/5.0137838
   
   with help from (in alphabetical order)
   P. Atkinson, C. Bannwarth, F. Bohle, G. Brandenburg, E. Caldeweyher
   M. Checinski, S. Dohm, S. Ehlert, S. Ehrlich, I. Gerasimov, C. Hölzer
   A. Katbashev, J. Kohn, J. Koopman, C. Lavigne, S. Lehtola, F. März, M. Müller,
   F. Musil, H. Neugebauer, J. Pisarek, C. Plett, P. Pracht, F. Pultar,
   J. Seibert, P. Shushkov, S. Spicher, M. Stahn, M. Steiner, T. Strunk,
   J. Stückrath, T. Rose, and J. Unsleber
   
 * started run on 2025/06/23 at 11:32:36.256     
$$$$$$$$$$$$$$$$$$$$$$$$$$$$$$$$$$$$$$$$$$$$$$$$$$$$$$$$$$$$$$$$$$$$$$$$
 CONSTRAINTS & SCANS: DEBUG SECTION
$$$$$$$$$$$$$$$$$$$$$$$$$$$$$$$$$$$$$$$$$$$$$$$$$$$$$$$$$$$$$$$$$$$$$$$$
   ID    Z sym.   atoms
    1    6 C      1-5
    2    8 O      6-10
    3    1 H      11-20
$$$$$$$$$$$$$$$$$$$$$$$$$$$$$$$$$$$$$$$$$$$$$$$$$$$$$$$$$$$$$$$$$$$$$$$$

           -------------------------------------------------
          |                Calculation Setup                |
           -------------------------------------------------

          program call               : C:\Users\nkapa\Downloads\xtb-6.7.1pre-windows-x86_64\xtb-6.7.1\bin\xtb.EXE dft_tmp\509.xyz --gfn2 --parallel 8 --verbose
          coordinate file            : dft_tmp\509.xyz
          xtbhome directory          : C:\Users\nkapa\AppData\Roaming\SPB_Data
          path for xtb               : C:\Users\nkapa\Downloads\xtb-6.7.1pre-windows-x86_64\xtb-6.7.1\share\xtb
          xcontrol input file        : dft_tmp\509.xyz
          omp threads                :                     8


           -------------------------------------------------
          |                 G F N 2 - x T B                 |
           -------------------------------------------------

        Reference                      10.1021/acs.jctc.8b01176
      * Hamiltonian:
        H0-scaling (s, p, d)           1.850000    2.230000    2.230000
        zeta-weighting                 0.500000
      * Dispersion:
        s8                             2.700000
        a1                             0.520000
        a2                             5.000000
        s9                             5.000000
      * Repulsion:
        kExp                           1.500000    1.000000
        rExp                           1.000000
      * Coulomb:
        alpha                          2.000000
        third order                    shell-resolved
        anisotropic                    true
        a3                             3.000000
        a5                             4.000000
        cn-shift                       1.200000
        cn-exp                         4.000000
        max-rad                        5.000000

q/qsh data taken from xtbrestart
CAMM data taken from xtbrestart

          ...................................................
          :                      SETUP                      :
          :.................................................:
          :  # basis functions                  50          :
          :  # atomic orbitals                  50          :
          :  # shells                           30          :
          :  # electrons                        60          :
          :  max. iterations                   250          :
          :  Hamiltonian                  GFN2-xTB          :
          :  restarted?                       true          :
          :  GBSA solvation                  false          :
          :  PC potential                    false          :
          :  electronic temp.          300.0000000     K    :
          :  accuracy                    1.0000000          :
          :  -> integral cutoff          0.2500000E+02      :
          :  -> integral neglect         0.1000000E-07      :
          :  -> SCF convergence          0.1000000E-05 Eh   :
          :  -> wf. convergence          0.1000000E-03 e    :
          :  Broyden damping             0.4000000          :
          :  net charge                          0          :
          :  unpaired electrons                  0          :
          ...................................................

 iter      E             dE          RMSdq      gap      omega  full diag
   1    -36.3180464 -0.363180E+02  0.376E+00    2.74       0.0  T
   2    -36.3225407 -0.449429E-02  0.224E+00    2.79       1.0  T
   3    -36.3240382 -0.149756E-02  0.296E-01    2.77       1.0  T
   4    -36.3243893 -0.351024E-03  0.154E-01    2.77       1.0  T
   5    -36.3244316 -0.423793E-04  0.521E-02    2.78       1.0  T
   6    -36.3244364 -0.480770E-05  0.151E-02    2.77       1.5  T
   7    -36.3244372 -0.757995E-06  0.441E-03    2.78       5.1  T
   8    -36.3244373 -0.609886E-07  0.218E-03    2.78      10.3  T
   9    -36.3244373 -0.289485E-07  0.764E-04    2.78      29.3  T
  10    -36.3244373 -0.782414E-09  0.279E-04    2.78      80.2  T

   *** convergence criteria satisfied after 10 iterations ***

         #    Occupation            Energy/Eh            Energy/eV
      -------------------------------------------------------------
         1        2.0000           -0.7389110             -20.1068
       ...           ...                  ...                  ...
        24        2.0000           -0.4760244             -12.9533
        25        2.0000           -0.4677480             -12.7281
        26        2.0000           -0.4602848             -12.5250
        27        2.0000           -0.4430889             -12.0571
        28        2.0000           -0.4392277             -11.9520
        29        2.0000           -0.4224067             -11.4943
        30        2.0000           -0.3999540             -10.8833 (HOMO)
        31                         -0.2979551              -8.1078 (LUMO)
        32                         -0.0311681              -0.8481
        33                          0.0041669               0.1134
        34                          0.0329882               0.8977
        35                          0.0440862               1.1996
       ...                                ...                  ...
        50                          0.5098525              13.8738
      -------------------------------------------------------------
                  HL-Gap            0.1019989 Eh            2.7755 eV
             Fermi-level           -0.3489546 Eh           -9.4955 eV

 SCC (total)                   0 d,  0 h,  0 min,  0.017 sec
 SCC setup                      ...        0 min,  0.000 sec (  0.000%)
 Dispersion                     ...        0 min,  0.000 sec (  0.000%)
 classical contributions        ...        0 min,  0.000 sec (  0.000%)
 integral evaluation            ...        0 min,  0.002 sec ( 11.765%)
 iterations                     ...        0 min,  0.011 sec ( 64.705%)
 molecular gradient             ...        0 min,  0.003 sec ( 17.647%)
 printout                       ...        0 min,  0.001 sec (  5.883%)

         :::::::::::::::::::::::::::::::::::::::::::::::::::::
         ::                     SUMMARY                     ::
         :::::::::::::::::::::::::::::::::::::::::::::::::::::
         :: total energy             -36.072966028999 Eh    ::
         :: gradient norm              0.089392629155 Eh/a0 ::
         :: HOMO-LUMO gap              2.775530763916 eV    ::
         ::.................................................::
         :: HOMO orbital eigv.       -10.883302930913 eV    ::
         :: LUMO orbital eigv.        -8.107772166997 eV    ::
         ::.................................................::
         :: SCC energy               -36.324388609539 Eh    ::
         :: -> isotropic ES            0.113341280178 Eh    ::
         :: -> anisotropic ES          0.005852290051 Eh    ::
         :: -> anisotropic XC         -0.003835251674 Eh    ::
         :: -> dispersion             -0.013741680687 Eh    ::
         :: repulsion energy           0.251422580540 Eh    ::
         :: add. restraining           0.000000000000 Eh    ::
         :: total charge               0.000000000000 e     ::
         ::.................................................::
         :: atomisation energy         5.194777048317 Eh    ::
         :::::::::::::::::::::::::::::::::::::::::::::::::::::

           -------------------------------------------------
          |                Property Printout                |
           -------------------------------------------------

    * Orbital Energies and Occupations

         #    Occupation            Energy/Eh            Energy/eV
      -------------------------------------------------------------
         1        2.0000           -0.7389110             -20.1068
       ...           ...                  ...                  ...
        18        2.0000           -0.5459062             -14.8549
        19        2.0000           -0.5382315             -14.6460
        20        2.0000           -0.5240889             -14.2612
        21        2.0000           -0.5150675             -14.0157
        22        2.0000           -0.5044816             -13.7276
        23        2.0000           -0.4902382             -13.3401
        24        2.0000           -0.4760244             -12.9533
        25        2.0000           -0.4677480             -12.7281
        26        2.0000           -0.4602848             -12.5250
        27        2.0000           -0.4430889             -12.0571
        28        2.0000           -0.4392277             -11.9520
        29        2.0000           -0.4224067             -11.4943
        30        2.0000           -0.3999540             -10.8833 (HOMO)
        31                         -0.2979551              -8.1078 (LUMO)
        32                         -0.0311681              -0.8481
        33                          0.0041669               0.1134
        34                          0.0329882               0.8977
        35                          0.0440862               1.1996
        36                          0.0505727               1.3762
        37                          0.0640931               1.7441
        38                          0.0761901               2.0732
        39                          0.0918372               2.4990
        40                          0.1055381               2.8718
        41                          0.1193562               3.2478
       ...                                ...                  ...
        50                          0.5098525              13.8738
      -------------------------------------------------------------
                  HL-Gap            0.1019989 Eh            2.7755 eV
             Fermi-level           -0.3489546 Eh           -9.4955 eV

     #   Z          covCN         q      C6AA      α(0)
     1   6 C        3.669     0.068    19.675     6.359
     2   6 C        3.720     0.099    19.052     6.234
     3   6 C        3.720     0.098    19.076     6.238
     4   6 C        3.723     0.086    19.262     6.267
     5   6 C        2.760     0.186    24.010     8.024
     6   8 O        0.856    -0.334    20.405     6.056
     7   8 O        1.652    -0.417    21.188     6.214
     8   8 O        1.652    -0.435    21.547     6.266
     9   8 O        1.651    -0.409    21.032     6.191
    10   8 O        1.652    -0.418    21.200     6.215
    11   1 H        0.921     0.014     2.825     2.629
    12   1 H        0.921     0.058     2.218     2.329
    13   1 H        0.921     0.045     2.382     2.414
    14   1 H        0.920     0.022     2.697     2.568
    15   1 H        0.921     0.085     1.926     2.171
    16   1 H        0.925     0.053     2.279     2.361
    17   1 H        0.801     0.303     0.713     1.327
    18   1 H        0.801     0.297     0.730     1.343
    19   1 H        0.801     0.305     0.706     1.320
    20   1 H        0.801     0.292     0.746     1.357

 Mol. C6AA /au·bohr⁶  :       3351.183441
 Mol. C8AA /au·bohr⁸  :      71370.873026
 Mol. α(0) /au        :         83.883419


Wiberg/Mayer (AO) data.
largest (>0.10) Wiberg bond orders for each atom

 ---------------------------------------------------------------------------
     #   Z sym  total        # sym  WBO       # sym  WBO       # sym  WBO
 ---------------------------------------------------------------------------
     1   6 C    3.960 --    10 O    1.014    11 H    0.970     2 C    0.967
                            12 H    0.967
     2   6 C    3.967 --     9 O    1.020     1 C    0.967     3 C    0.958
                            13 H    0.958
     3   6 C    3.954 --     8 O    0.998    14 H    0.961     2 C    0.958
                             4 C    0.928
     4   6 C    3.966 --     7 O    1.014     5 C    0.991    15 H    0.928
                             3 C    0.928
     5   6 C    3.910 --     6 O    1.909     4 C    0.991    16 H    0.937
     6   8 O    2.064 --     5 C    1.909
     7   8 O    1.978 --     4 C    1.014    17 H    0.889
     8   8 O    1.975 --     3 C    0.998    18 H    0.897
     9   8 O    1.988 --     2 C    1.020    19 H    0.888
    10   8 O    1.976 --     1 C    1.014    20 H    0.900
    11   1 H    1.000 --     1 C    0.970
    12   1 H    0.997 --     1 C    0.967
    13   1 H    0.998 --     2 C    0.958
    14   1 H    0.999 --     3 C    0.961
    15   1 H    0.993 --     4 C    0.928
    16   1 H    0.997 --     5 C    0.937
    17   1 H    0.908 --     7 O    0.889
    18   1 H    0.912 --     8 O    0.897
    19   1 H    0.907 --     9 O    0.888
    20   1 H    0.915 --    10 O    0.900
 ---------------------------------------------------------------------------

Topologies differ in total number of bonds
Writing topology from bond orders to xtbtopo.mol

molecular dipole:
                 x           y           z       tot (Debye)
 q only:        0.132      -0.582       0.053
   full:        0.478      -0.930       0.340       2.796
molecular quadrupole (traceless):
                xx          xy          yy          xz          yz          zz
 q only:       -2.790      -2.075       1.172     -12.161       4.833       1.618
  q+dip:       -2.663      -2.616       1.242     -16.342       7.605       1.421
   full:       -3.296      -2.725       1.836     -15.936       7.736       1.460


           -------------------------------------------------
          | TOTAL ENERGY              -36.072966028999 Eh   |
          | GRADIENT NORM               0.089392629155 Eh/α |
          | HOMO-LUMO GAP               2.775530763916 eV   |
           -------------------------------------------------

------------------------------------------------------------------------
 unit  open   action     filename
  129 false : read       dft_tmp\509.xyz
  129 false : read       dft_tmp\509.xyz
  129 false : read       dft_tmp\509.xyz
  129 false : read       C:\Users\nkapa\Downloads\xtb-6.7.1pre-windows-x86_64\xtb-6.7.1\share\xtb\param_gfn2-xtb.txt
  129 false : read       xtbrestart
  129 false : replaced   charges
  129 false : replaced   wbo
  129 false : replaced   xtbtopo.mol
  129 false : replaced   xtbrestart

------------------------------------------------------------------------
 * finished run on 2025/06/23 at 11:32:36.310     
------------------------------------------------------------------------
 total:
 * wall-time:     0 d,  0 h,  0 min,  0.052 sec
 *  cpu-time:     0 d,  0 h,  0 min,  0.188 sec
 * ratio c/w:     3.606 speedup
 SCF:
 * wall-time:     0 d,  0 h,  0 min,  0.017 sec
 *  cpu-time:     0 d,  0 h,  0 min,  0.172 sec
 * ratio c/w:    10.110 speedup

normal termination of xtb
