      -----------------------------------------------------------      
     |                   =====================                   |     
     |                           x T B                           |     
     |                   =====================                   |     
     |                         S. Grimme                         |     
     |          Mulliken Center for Theoretical Chemistry        |     
     |                    University of Bonn                     |     
      -----------------------------------------------------------      

   * xtb version 6.7.1pre (5071a88) compiled by 'Marcel@Raven' on 2024-07-23

   xtb is free software: you can redistribute it and/or modify it under
   the terms of the GNU Lesser General Public License as published by
   the Free Software Foundation, either version 3 of the License, or
   (at your option) any later version.
   
   xtb is distributed in the hope that it will be useful,
   but WITHOUT ANY WARRANTY; without even the implied warranty of
   MERCHANTABILITY or FITNESS FOR A PARTICULAR PURPOSE.  See the
   GNU Lesser General Public License for more details.
   
   Cite this work as:
   * C. Bannwarth, E. Caldeweyher, S. Ehlert, A. Hansen, P. Pracht,
     J. Seibert, S. Spicher, S. Grimme, WIREs Comput. Mol. Sci., 2020, 11,
     e01493. DOI: 10.1002/wcms.1493
   
   for GFN2-xTB:
   * C. Bannwarth, S. Ehlert and S. Grimme., J. Chem. Theory Comput., 2019,
     15, 1652-1671. DOI: 10.1021/acs.jctc.8b01176
   for GFN1-xTB:
   * S. Grimme, C. Bannwarth, P. Shushkov, J. Chem. Theory Comput., 2017,
     13, 1989-2009. DOI: 10.1021/acs.jctc.7b00118
   for GFN0-xTB:
   * P. Pracht, E. Caldeweyher, S. Ehlert, S. Grimme, ChemRxiv, 2019, preprint.
     DOI: 10.26434/chemrxiv.8326202.v1
   for GFN-FF:
   * S. Spicher and S. Grimme, Angew. Chem. Int. Ed., 2020, 59, 15665-15673.
     DOI: 10.1002/anie.202004239
   
   for ALPB and GBSA implicit solvation:
   * S. Ehlert, M. Stahn, S. Spicher, S. Grimme, J. Chem. Theory Comput.,
     2021, 17, 4250-4261. DOI: 10.1021/acs.jctc.1c00471
   
   for ddCOSMO and CPCM-X implicit solvation:
   * M. Stahn, S. Ehlert, S. Grimme, J. Phys. Chem. A,
     2023, XX, XXXX-XXXX. DOI: 10.1021/acs.jpca.3c04382
   
   for DFT-D4:
   * E. Caldeweyher, C. Bannwarth and S. Grimme, J. Chem. Phys., 2017,
     147, 034112. DOI: 10.1063/1.4993215
   * E. Caldeweyher, S. Ehlert, A. Hansen, H. Neugebauer, S. Spicher,
     C. Bannwarth and S. Grimme, J. Chem. Phys., 2019, 150, 154122.
     DOI: 10.1063/1.5090222
   * E. Caldeweyher, J.-M. Mewes, S. Ehlert and S. Grimme, Phys. Chem. Chem. Phys.
     2020, 22, 8499-8512. DOI: 10.1039/D0CP00502A
   
   for sTDA-xTB:
   * S. Grimme and C. Bannwarth, J. Chem. Phys., 2016, 145, 054103.
     DOI: 10.1063/1.4959605
   
   in the mass-spec context:
   * V. Asgeirsson, C. Bauer and S. Grimme, Chem. Sci., 2017, 8, 4879.
     DOI: 10.1039/c7sc00601b
   * J. Koopman and S. Grimme, ACS Omega 2019, 4, 12, 15120-15133.
     DOI: 10.1021/acsomega.9b02011
   
   for metadynamics refer to:
   * S. Grimme, J. Chem. Theory Comput., 2019, 155, 2847-2862
     DOI: 10.1021/acs.jctc.9b00143
   
   for SPH calculations refer to:
   * S. Spicher and S. Grimme, J. Chem. Theory Comput., 2021, 17, 1701-1714
     DOI: 10.1021/acs.jctc.0c01306
   
   for ONIOM refer to:
   * C. Plett, A. Katbashev, S. Ehlert, S. Grimme, M. Bursch,
     Phys. Chem. Chem. Phys., 2023, 25, 17860-17868. DOI: 10.1039/D3CP02178E
   
   for DIPRO refer to:
   * J. Kohn, N. Gildemeister, S. Grimme, D. Fazzi, A. Hansen,
     J. Chem. Phys., 2023, just accepted.
   
   for PTB refer to:
   * S. Grimme, M. Mueller, A. Hansen, J. Chem. Phys., 2023, 158, 124111.
     DOI: 10.1063/5.0137838
   
   with help from (in alphabetical order)
   P. Atkinson, C. Bannwarth, F. Bohle, G. Brandenburg, E. Caldeweyher
   M. Checinski, S. Dohm, S. Ehlert, S. Ehrlich, I. Gerasimov, C. Hölzer
   A. Katbashev, J. Kohn, J. Koopman, C. Lavigne, S. Lehtola, F. März, M. Müller,
   F. Musil, H. Neugebauer, J. Pisarek, C. Plett, P. Pracht, F. Pultar,
   J. Seibert, P. Shushkov, S. Spicher, M. Stahn, M. Steiner, T. Strunk,
   J. Stückrath, T. Rose, and J. Unsleber
   
 * started run on 2025/06/23 at 11:32:36.711     
$$$$$$$$$$$$$$$$$$$$$$$$$$$$$$$$$$$$$$$$$$$$$$$$$$$$$$$$$$$$$$$$$$$$$$$$
 CONSTRAINTS & SCANS: DEBUG SECTION
$$$$$$$$$$$$$$$$$$$$$$$$$$$$$$$$$$$$$$$$$$$$$$$$$$$$$$$$$$$$$$$$$$$$$$$$
   ID    Z sym.   atoms
    1    6 C      1-4
    2    8 O      5-8
    3    1 H      9-18
$$$$$$$$$$$$$$$$$$$$$$$$$$$$$$$$$$$$$$$$$$$$$$$$$$$$$$$$$$$$$$$$$$$$$$$$

           -------------------------------------------------
          |                Calculation Setup                |
           -------------------------------------------------

          program call               : C:\Users\nkapa\Downloads\xtb-6.7.1pre-windows-x86_64\xtb-6.7.1\bin\xtb.EXE dft_tmp\512.xyz --gfn2 --parallel 8 --verbose
          coordinate file            : dft_tmp\512.xyz
          xtbhome directory          : C:\Users\nkapa\AppData\Roaming\SPB_Data
          path for xtb               : C:\Users\nkapa\Downloads\xtb-6.7.1pre-windows-x86_64\xtb-6.7.1\share\xtb
          xcontrol input file        : dft_tmp\512.xyz
          omp threads                :                     8


           -------------------------------------------------
          |                 G F N 2 - x T B                 |
           -------------------------------------------------

        Reference                      10.1021/acs.jctc.8b01176
      * Hamiltonian:
        H0-scaling (s, p, d)           1.850000    2.230000    2.230000
        zeta-weighting                 0.500000
      * Dispersion:
        s8                             2.700000
        a1                             0.520000
        a2                             5.000000
        s9                             5.000000
      * Repulsion:
        kExp                           1.500000    1.000000
        rExp                           1.000000
      * Coulomb:
        alpha                          2.000000
        third order                    shell-resolved
        anisotropic                    true
        a3                             3.000000
        a5                             4.000000
        cn-shift                       1.200000
        cn-exp                         4.000000
        max-rad                        5.000000


          ...................................................
          :                      SETUP                      :
          :.................................................:
          :  # basis functions                  42          :
          :  # atomic orbitals                  42          :
          :  # shells                           26          :
          :  # electrons                        50          :
          :  max. iterations                   250          :
          :  Hamiltonian                  GFN2-xTB          :
          :  restarted?                      false          :
          :  GBSA solvation                  false          :
          :  PC potential                    false          :
          :  electronic temp.          300.0000000     K    :
          :  accuracy                    1.0000000          :
          :  -> integral cutoff          0.2500000E+02      :
          :  -> integral neglect         0.1000000E-07      :
          :  -> SCF convergence          0.1000000E-05 Eh   :
          :  -> wf. convergence          0.1000000E-03 e    :
          :  Broyden damping             0.4000000          :
          :  net charge                          0          :
          :  unpaired electrons                  0          :
          ...................................................

 iter      E             dE          RMSdq      gap      omega  full diag
   1    -30.0571050 -0.300571E+02  0.450E+00   10.81       0.0  T
   2    -30.0831850 -0.260800E-01  0.243E+00   10.63       1.0  T
   3    -30.0844230 -0.123800E-02  0.664E-01   10.56       1.0  T
   4    -30.0847079 -0.284979E-03  0.139E-01   10.56       1.0  T
   5    -30.0847434 -0.354994E-04  0.392E-02   10.60       1.0  T
   6    -30.0847466 -0.312096E-05  0.190E-02   10.60       1.2  T
   7    -30.0847475 -0.890658E-06  0.497E-03   10.60       4.7  T
   8    -30.0847475 -0.519435E-07  0.198E-03   10.60      11.9  T
   9    -30.0847475 -0.164797E-07  0.567E-04   10.60      41.5  T
  10    -30.0847475 -0.165341E-08  0.159E-04   10.60     148.4  T

   *** convergence criteria satisfied after 10 iterations ***

         #    Occupation            Energy/Eh            Energy/eV
      -------------------------------------------------------------
         1        2.0000           -0.7045288             -19.1712
       ...           ...                  ...                  ...
        19        2.0000           -0.4757602             -12.9461
        20        2.0000           -0.4573170             -12.4442
        21        2.0000           -0.4458983             -12.1335
        22        2.0000           -0.4370459             -11.8926
        23        2.0000           -0.4296819             -11.6922
        24        2.0000           -0.4015183             -10.9259
        25        2.0000           -0.3946448             -10.7388 (HOMO)
        26                         -0.0050915              -0.1385 (LUMO)
        27                          0.0061055               0.1661
        28                          0.0364399               0.9916
        29                          0.0657096               1.7880
        30                          0.0714902               1.9453
       ...                                ...                  ...
        42                          0.2556237               6.9559
      -------------------------------------------------------------
                  HL-Gap            0.3895533 Eh           10.6003 eV
             Fermi-level           -0.1998682 Eh           -5.4387 eV

 SCC (total)                   0 d,  0 h,  0 min,  0.012 sec
 SCC setup                      ...        0 min,  0.000 sec (  0.000%)
 Dispersion                     ...        0 min,  0.000 sec (  0.000%)
 classical contributions        ...        0 min,  0.000 sec (  0.000%)
 integral evaluation            ...        0 min,  0.001 sec (  8.335%)
 iterations                     ...        0 min,  0.009 sec ( 75.000%)
 molecular gradient             ...        0 min,  0.002 sec ( 16.665%)
 printout                       ...        0 min,  0.000 sec (  0.000%)

         :::::::::::::::::::::::::::::::::::::::::::::::::::::
         ::                     SUMMARY                     ::
         :::::::::::::::::::::::::::::::::::::::::::::::::::::
         :: total energy             -29.884963714283 Eh    ::
         :: gradient norm              0.073343355283 Eh/a0 ::
         :: HOMO-LUMO gap             10.600284353864 eV    ::
         ::.................................................::
         :: HOMO orbital eigv.       -10.738831961521 eV    ::
         :: LUMO orbital eigv.        -0.138547607657 eV    ::
         ::.................................................::
         :: SCC energy               -30.084696038174 Eh    ::
         :: -> isotropic ES            0.094785347206 Eh    ::
         :: -> anisotropic ES          0.006592673978 Eh    ::
         :: -> anisotropic XC         -0.003828840292 Eh    ::
         :: -> dispersion             -0.011451598302 Eh    ::
         :: repulsion energy           0.199732323890 Eh    ::
         :: add. restraining           0.000000000000 Eh    ::
         :: total charge               0.000000000000 e     ::
         ::.................................................::
         :: atomisation energy         4.395447001866 Eh    ::
         :::::::::::::::::::::::::::::::::::::::::::::::::::::

           -------------------------------------------------
          |                Property Printout                |
           -------------------------------------------------

    * Orbital Energies and Occupations

         #    Occupation            Energy/Eh            Energy/eV
      -------------------------------------------------------------
         1        2.0000           -0.7045288             -19.1712
       ...           ...                  ...                  ...
        13        2.0000           -0.5455666             -14.8456
        14        2.0000           -0.5282025             -14.3731
        15        2.0000           -0.5217845             -14.1985
        16        2.0000           -0.5110145             -13.9054
        17        2.0000           -0.5023332             -13.6692
        18        2.0000           -0.4837773             -13.1643
        19        2.0000           -0.4757602             -12.9461
        20        2.0000           -0.4573170             -12.4442
        21        2.0000           -0.4458983             -12.1335
        22        2.0000           -0.4370459             -11.8926
        23        2.0000           -0.4296819             -11.6922
        24        2.0000           -0.4015183             -10.9259
        25        2.0000           -0.3946448             -10.7388 (HOMO)
        26                         -0.0050915              -0.1385 (LUMO)
        27                          0.0061055               0.1661
        28                          0.0364399               0.9916
        29                          0.0657096               1.7880
        30                          0.0714902               1.9453
        31                          0.0765150               2.0821
        32                          0.1074779               2.9246
        33                          0.1127719               3.0687
        34                          0.1258430               3.4244
        35                          0.1416648               3.8549
        36                          0.1493663               4.0645
       ...                                ...                  ...
        42                          0.2556237               6.9559
      -------------------------------------------------------------
                  HL-Gap            0.3895533 Eh           10.6003 eV
             Fermi-level           -0.1998682 Eh           -5.4387 eV

     #   Z          covCN         q      C6AA      α(0)
     1   6 C        3.668     0.078    19.523     6.335
     2   6 C        3.718     0.098    19.074     6.239
     3   6 C        3.718     0.091    19.187     6.257
     4   6 C        3.667     0.072    19.626     6.352
     5   8 O        1.652    -0.417    21.182     6.213
     6   8 O        1.652    -0.445    21.738     6.294
     7   8 O        1.652    -0.434    21.530     6.264
     8   8 O        1.652    -0.409    21.029     6.190
     9   1 H        0.921     0.020     2.738     2.588
    10   1 H        0.921     0.045     2.388     2.416
    11   1 H        0.920     0.014     2.829     2.630
    12   1 H        0.921     0.042     2.427     2.437
    13   1 H        0.921     0.021     2.723     2.581
    14   1 H        0.922     0.061     2.193     2.316
    15   1 H        0.801     0.285     0.767     1.376
    16   1 H        0.801     0.291     0.751     1.361
    17   1 H        0.801     0.291     0.749     1.359
    18   1 H        0.801     0.298     0.728     1.341

 Mol. C6AA /au·bohr⁶  :       2398.891735
 Mol. C8AA /au·bohr⁸  :      49489.259238
 Mol. α(0) /au        :         70.549616


Wiberg/Mayer (AO) data.
largest (>0.10) Wiberg bond orders for each atom

 ---------------------------------------------------------------------------
     #   Z sym  total        # sym  WBO       # sym  WBO       # sym  WBO
 ---------------------------------------------------------------------------
     1   6 C    3.968 --     8 O    1.020     2 C    0.973     9 H    0.972
                            10 H    0.969
     2   6 C    3.956 --     7 O    0.994     1 C    0.973    11 H    0.964
                             3 C    0.957
     3   6 C    3.952 --     6 O    0.994     4 C    0.972    12 H    0.959
                             2 C    0.957
     4   6 C    3.959 --     5 O    1.013     3 C    0.972    13 H    0.970
                            14 H    0.967
     5   8 O    1.977 --     4 C    1.013    15 H    0.904
     6   8 O    1.964 --     3 C    0.994    16 H    0.896
     7   8 O    1.971 --     2 C    0.994    17 H    0.901
     8   8 O    1.980 --     1 C    1.020    18 H    0.898
     9   1 H    0.999 --     1 C    0.972
    10   1 H    0.998 --     1 C    0.969
    11   1 H    1.000 --     2 C    0.964
    12   1 H    0.998 --     3 C    0.959
    13   1 H    0.999 --     4 C    0.970
    14   1 H    0.996 --     4 C    0.967
    15   1 H    0.919 --     5 O    0.904
    16   1 H    0.916 --     6 O    0.896
    17   1 H    0.915 --     7 O    0.901
    18   1 H    0.911 --     8 O    0.898
 ---------------------------------------------------------------------------

Topologies differ in total number of bonds
Writing topology from bond orders to xtbtopo.mol

molecular dipole:
                 x           y           z       tot (Debye)
 q only:        0.232       0.659      -0.047
   full:        0.344       1.060      -0.025       2.834
molecular quadrupole (traceless):
                xx          xy          yy          xz          yz          zz
 q only:        2.993       0.030      -4.224      -1.202      -6.029       1.231
  q+dip:        6.380       0.616      -8.316      -2.393      -8.416       1.936
   full:        5.180       0.468      -7.204      -2.247      -8.459       2.024


           -------------------------------------------------
          | TOTAL ENERGY              -29.884963714283 Eh   |
          | GRADIENT NORM               0.073343355283 Eh/α |
          | HOMO-LUMO GAP              10.600284353864 eV   |
           -------------------------------------------------
########################################################################
[WARNING] Runtime exception occurred
-2- restart_readRestart: Dimension missmatch in restart file.
-1- restart_readRestart: Number of electron missmatch in restart file.
########################################################################

------------------------------------------------------------------------
 unit  open   action     filename
  129 false : read       dft_tmp\512.xyz
  129 false : read       dft_tmp\512.xyz
  129 false : read       dft_tmp\512.xyz
  129 false : read       C:\Users\nkapa\Downloads\xtb-6.7.1pre-windows-x86_64\xtb-6.7.1\share\xtb\param_gfn2-xtb.txt
  129 false : read       xtbrestart
  129 false : replaced   charges
  129 false : replaced   wbo
  129 false : replaced   xtbtopo.mol
  129 false : replaced   xtbrestart

------------------------------------------------------------------------
 * finished run on 2025/06/23 at 11:32:36.766     
------------------------------------------------------------------------
 total:
 * wall-time:     0 d,  0 h,  0 min,  0.054 sec
 *  cpu-time:     0 d,  0 h,  0 min,  0.250 sec
 * ratio c/w:     4.630 speedup
 SCF:
 * wall-time:     0 d,  0 h,  0 min,  0.013 sec
 *  cpu-time:     0 d,  0 h,  0 min,  0.125 sec
 * ratio c/w:     9.615 speedup

normal termination of xtb
