      -----------------------------------------------------------      
     |                   =====================                   |     
     |                           x T B                           |     
     |                   =====================                   |     
     |                         S. Grimme                         |     
     |          Mulliken Center for Theoretical Chemistry        |     
     |                    University of Bonn                     |     
      -----------------------------------------------------------      

   * xtb version 6.7.1pre (5071a88) compiled by 'Marcel@Raven' on 2024-07-23

   xtb is free software: you can redistribute it and/or modify it under
   the terms of the GNU Lesser General Public License as published by
   the Free Software Foundation, either version 3 of the License, or
   (at your option) any later version.
   
   xtb is distributed in the hope that it will be useful,
   but WITHOUT ANY WARRANTY; without even the implied warranty of
   MERCHANTABILITY or FITNESS FOR A PARTICULAR PURPOSE.  See the
   GNU Lesser General Public License for more details.
   
   Cite this work as:
   * C. Bannwarth, E. Caldeweyher, S. Ehlert, A. Hansen, P. Pracht,
     J. Seibert, S. Spicher, S. Grimme, WIREs Comput. Mol. Sci., 2020, 11,
     e01493. DOI: 10.1002/wcms.1493
   
   for GFN2-xTB:
   * C. Bannwarth, S. Ehlert and S. Grimme., J. Chem. Theory Comput., 2019,
     15, 1652-1671. DOI: 10.1021/acs.jctc.8b01176
   for GFN1-xTB:
   * S. Grimme, C. Bannwarth, P. Shushkov, J. Chem. Theory Comput., 2017,
     13, 1989-2009. DOI: 10.1021/acs.jctc.7b00118
   for GFN0-xTB:
   * P. Pracht, E. Caldeweyher, S. Ehlert, S. Grimme, ChemRxiv, 2019, preprint.
     DOI: 10.26434/chemrxiv.8326202.v1
   for GFN-FF:
   * S. Spicher and S. Grimme, Angew. Chem. Int. Ed., 2020, 59, 15665-15673.
     DOI: 10.1002/anie.202004239
   
   for ALPB and GBSA implicit solvation:
   * S. Ehlert, M. Stahn, S. Spicher, S. Grimme, J. Chem. Theory Comput.,
     2021, 17, 4250-4261. DOI: 10.1021/acs.jctc.1c00471
   
   for ddCOSMO and CPCM-X implicit solvation:
   * M. Stahn, S. Ehlert, S. Grimme, J. Phys. Chem. A,
     2023, XX, XXXX-XXXX. DOI: 10.1021/acs.jpca.3c04382
   
   for DFT-D4:
   * E. Caldeweyher, C. Bannwarth and S. Grimme, J. Chem. Phys., 2017,
     147, 034112. DOI: 10.1063/1.4993215
   * E. Caldeweyher, S. Ehlert, A. Hansen, H. Neugebauer, S. Spicher,
     C. Bannwarth and S. Grimme, J. Chem. Phys., 2019, 150, 154122.
     DOI: 10.1063/1.5090222
   * E. Caldeweyher, J.-M. Mewes, S. Ehlert and S. Grimme, Phys. Chem. Chem. Phys.
     2020, 22, 8499-8512. DOI: 10.1039/D0CP00502A
   
   for sTDA-xTB:
   * S. Grimme and C. Bannwarth, J. Chem. Phys., 2016, 145, 054103.
     DOI: 10.1063/1.4959605
   
   in the mass-spec context:
   * V. Asgeirsson, C. Bauer and S. Grimme, Chem. Sci., 2017, 8, 4879.
     DOI: 10.1039/c7sc00601b
   * J. Koopman and S. Grimme, ACS Omega 2019, 4, 12, 15120-15133.
     DOI: 10.1021/acsomega.9b02011
   
   for metadynamics refer to:
   * S. Grimme, J. Chem. Theory Comput., 2019, 155, 2847-2862
     DOI: 10.1021/acs.jctc.9b00143
   
   for SPH calculations refer to:
   * S. Spicher and S. Grimme, J. Chem. Theory Comput., 2021, 17, 1701-1714
     DOI: 10.1021/acs.jctc.0c01306
   
   for ONIOM refer to:
   * C. Plett, A. Katbashev, S. Ehlert, S. Grimme, M. Bursch,
     Phys. Chem. Chem. Phys., 2023, 25, 17860-17868. DOI: 10.1039/D3CP02178E
   
   for DIPRO refer to:
   * J. Kohn, N. Gildemeister, S. Grimme, D. Fazzi, A. Hansen,
     J. Chem. Phys., 2023, just accepted.
   
   for PTB refer to:
   * S. Grimme, M. Mueller, A. Hansen, J. Chem. Phys., 2023, 158, 124111.
     DOI: 10.1063/5.0137838
   
   with help from (in alphabetical order)
   P. Atkinson, C. Bannwarth, F. Bohle, G. Brandenburg, E. Caldeweyher
   M. Checinski, S. Dohm, S. Ehlert, S. Ehrlich, I. Gerasimov, C. Hölzer
   A. Katbashev, J. Kohn, J. Koopman, C. Lavigne, S. Lehtola, F. März, M. Müller,
   F. Musil, H. Neugebauer, J. Pisarek, C. Plett, P. Pracht, F. Pultar,
   J. Seibert, P. Shushkov, S. Spicher, M. Stahn, M. Steiner, T. Strunk,
   J. Stückrath, T. Rose, and J. Unsleber
   
 * started run on 2025/06/23 at 11:32:37.167     
$$$$$$$$$$$$$$$$$$$$$$$$$$$$$$$$$$$$$$$$$$$$$$$$$$$$$$$$$$$$$$$$$$$$$$$$
 CONSTRAINTS & SCANS: DEBUG SECTION
$$$$$$$$$$$$$$$$$$$$$$$$$$$$$$$$$$$$$$$$$$$$$$$$$$$$$$$$$$$$$$$$$$$$$$$$
   ID    Z sym.   atoms
    1    6 C      1-3, 6
    2    8 O      4, 7
    3    7 N      5
    4    1 H      8-12
$$$$$$$$$$$$$$$$$$$$$$$$$$$$$$$$$$$$$$$$$$$$$$$$$$$$$$$$$$$$$$$$$$$$$$$$

           -------------------------------------------------
          |                Calculation Setup                |
           -------------------------------------------------

          program call               : C:\Users\nkapa\Downloads\xtb-6.7.1pre-windows-x86_64\xtb-6.7.1\bin\xtb.EXE dft_tmp\516.xyz --gfn2 --parallel 8 --verbose
          coordinate file            : dft_tmp\516.xyz
          xtbhome directory          : C:\Users\nkapa\AppData\Roaming\SPB_Data
          path for xtb               : C:\Users\nkapa\Downloads\xtb-6.7.1pre-windows-x86_64\xtb-6.7.1\share\xtb
          xcontrol input file        : dft_tmp\516.xyz
          omp threads                :                     8


           -------------------------------------------------
          |                 G F N 2 - x T B                 |
           -------------------------------------------------

        Reference                      10.1021/acs.jctc.8b01176
      * Hamiltonian:
        H0-scaling (s, p, d)           1.850000    2.230000    2.230000
        zeta-weighting                 0.500000
      * Dispersion:
        s8                             2.700000
        a1                             0.520000
        a2                             5.000000
        s9                             5.000000
      * Repulsion:
        kExp                           1.500000    1.000000
        rExp                           1.000000
      * Coulomb:
        alpha                          2.000000
        third order                    shell-resolved
        anisotropic                    true
        a3                             3.000000
        a5                             4.000000
        cn-shift                       1.200000
        cn-exp                         4.000000
        max-rad                        5.000000


          ...................................................
          :                      SETUP                      :
          :.................................................:
          :  # basis functions                  33          :
          :  # atomic orbitals                  33          :
          :  # shells                           19          :
          :  # electrons                        38          :
          :  max. iterations                   250          :
          :  Hamiltonian                  GFN2-xTB          :
          :  restarted?                      false          :
          :  GBSA solvation                  false          :
          :  PC potential                    false          :
          :  electronic temp.          300.0000000     K    :
          :  accuracy                    1.0000000          :
          :  -> integral cutoff          0.2500000E+02      :
          :  -> integral neglect         0.1000000E-07      :
          :  -> SCF convergence          0.1000000E-05 Eh   :
          :  -> wf. convergence          0.1000000E-03 e    :
          :  Broyden damping             0.4000000          :
          :  net charge                          0          :
          :  unpaired electrons                  0          :
          ...................................................

 iter      E             dE          RMSdq      gap      omega  full diag
   1    -22.2862043 -0.222862E+02  0.527E+00    4.18       0.0  T
   2    -22.3626529 -0.764486E-01  0.267E+00    3.44       1.0  T
   3    -22.3718655 -0.921262E-02  0.176E+00    3.89       1.0  T
   4    -22.3756150 -0.374949E-02  0.381E-01    3.60       1.0  T
   5    -22.3770885 -0.147346E-02  0.982E-02    3.69       1.0  T
   6    -22.3770804  0.804646E-05  0.459E-02    3.71       1.0  T
   7    -22.3770976 -0.171744E-04  0.740E-03    3.70       3.9  T
   8    -22.3770977 -0.830170E-07  0.296E-03    3.70       9.7  T
   9    -22.3770977 -0.174534E-07  0.716E-04    3.70      40.3  T
  10    -22.3770977 -0.459032E-09  0.616E-05    3.70     468.7  T

   *** convergence criteria satisfied after 10 iterations ***

         #    Occupation            Energy/Eh            Energy/eV
      -------------------------------------------------------------
         1        2.0000           -0.7248665             -19.7246
       ...           ...                  ...                  ...
        13        2.0000           -0.5308722             -14.4458
        14        2.0000           -0.5099062             -13.8753
        15        2.0000           -0.5092741             -13.8581
        16        2.0000           -0.4763318             -12.9616
        17        2.0000           -0.4534872             -12.3400
        18        2.0000           -0.4388021             -11.9404
        19        2.0000           -0.4233653             -11.5204 (HOMO)
        20                         -0.2874880              -7.8229 (LUMO)
        21                         -0.2411964              -6.5633
        22                         -0.0645513              -1.7565
        23                          0.0143993               0.3918
        24                          0.0619993               1.6871
       ...                                ...                  ...
        33                          0.4780555              13.0086
      -------------------------------------------------------------
                  HL-Gap            0.1358772 Eh            3.6974 eV
             Fermi-level           -0.3554266 Eh           -9.6717 eV

 SCC (total)                   0 d,  0 h,  0 min,  0.008 sec
 SCC setup                      ...        0 min,  0.000 sec (  0.000%)
 Dispersion                     ...        0 min,  0.001 sec ( 12.502%)
 classical contributions        ...        0 min,  0.000 sec (  0.000%)
 integral evaluation            ...        0 min,  0.000 sec (  0.000%)
 iterations                     ...        0 min,  0.005 sec ( 62.497%)
 molecular gradient             ...        0 min,  0.001 sec ( 12.499%)
 printout                       ...        0 min,  0.001 sec ( 12.502%)

         :::::::::::::::::::::::::::::::::::::::::::::::::::::
         ::                     SUMMARY                     ::
         :::::::::::::::::::::::::::::::::::::::::::::::::::::
         :: total energy             -22.179693542360 Eh    ::
         :: gradient norm              0.177400853153 Eh/a0 ::
         :: HOMO-LUMO gap              3.697407706444 eV    ::
         ::.................................................::
         :: HOMO orbital eigv.       -11.520354913460 eV    ::
         :: LUMO orbital eigv.        -7.822947207016 eV    ::
         ::.................................................::
         :: SCC energy               -22.377089382985 Eh    ::
         :: -> isotropic ES            0.067630816588 Eh    ::
         :: -> anisotropic ES         -0.000346181432 Eh    ::
         :: -> anisotropic XC          0.006498265013 Eh    ::
         :: -> dispersion             -0.007316207824 Eh    ::
         :: repulsion energy           0.197395840625 Eh    ::
         :: add. restraining           0.000000000000 Eh    ::
         :: total charge              -0.000000000000 e     ::
         ::.................................................::
         :: atomisation energy         3.658499837080 Eh    ::
         :::::::::::::::::::::::::::::::::::::::::::::::::::::

           -------------------------------------------------
          |                Property Printout                |
           -------------------------------------------------

    * Orbital Energies and Occupations

         #    Occupation            Energy/Eh            Energy/eV
      -------------------------------------------------------------
         1        2.0000           -0.7248665             -19.7246
       ...           ...                  ...                  ...
         7        2.0000           -0.6126345             -16.6706
         8        2.0000           -0.5890978             -16.0302
         9        2.0000           -0.5744636             -15.6320
        10        2.0000           -0.5493599             -14.9488
        11        2.0000           -0.5429154             -14.7735
        12        2.0000           -0.5409510             -14.7200
        13        2.0000           -0.5308722             -14.4458
        14        2.0000           -0.5099062             -13.8753
        15        2.0000           -0.5092741             -13.8581
        16        2.0000           -0.4763318             -12.9616
        17        2.0000           -0.4534872             -12.3400
        18        2.0000           -0.4388021             -11.9404
        19        2.0000           -0.4233653             -11.5204 (HOMO)
        20                         -0.2874880              -7.8229 (LUMO)
        21                         -0.2411964              -6.5633
        22                         -0.0645513              -1.7565
        23                          0.0143993               0.3918
        24                          0.0619993               1.6871
        25                          0.0669966               1.8231
        26                          0.0945553               2.5730
        27                          0.1386610               3.7732
        28                          0.1713235               4.6620
        29                          0.1795107               4.8847
        30                          0.2390861               6.5059
       ...                                ...                  ...
        33                          0.4780555              13.0086
      -------------------------------------------------------------
                  HL-Gap            0.1358772 Eh            3.6974 eV
             Fermi-level           -0.3554266 Eh           -9.6717 eV

     #   Z          covCN         q      C6AA      α(0)
     1   6 C        3.817    -0.087    22.148     6.698
     2   6 C        3.817    -0.087    22.148     6.698
     3   6 C        2.850     0.276    22.349     7.748
     4   8 O        0.856    -0.398    21.649     6.238
     5   7 N        2.684    -0.160    24.469     7.347
     6   6 C        2.850     0.276    22.349     7.748
     7   8 O        0.856    -0.398    21.649     6.238
     8   1 H        0.921     0.090     1.878     2.143
     9   1 H        0.921     0.090     1.878     2.143
    10   1 H        0.921     0.090     1.878     2.143
    11   1 H        0.921     0.090     1.878     2.143
    12   1 H        0.858     0.219     1.012     1.576

 Mol. C6AA /au·bohr⁶  :       1560.059265
 Mol. C8AA /au·bohr⁸  :      35558.210053
 Mol. α(0) /au        :         58.863588


Wiberg/Mayer (AO) data.
largest (>0.10) Wiberg bond orders for each atom

 ---------------------------------------------------------------------------
     #   Z sym  total        # sym  WBO       # sym  WBO       # sym  WBO
 ---------------------------------------------------------------------------
     1   6 C    3.993 --     6 C    1.004     2 C    1.003     9 H    0.950
                             8 H    0.950
     2   6 C    3.993 --     3 C    1.004     1 C    1.003    10 H    0.950
                            11 H    0.950
     3   6 C    3.941 --     4 O    1.741     5 N    1.136     2 C    1.004
     4   8 O    2.025 --     3 C    1.741     5 N    0.141
     5   7 N    3.528 --     6 C    1.136     3 C    1.136    12 H    0.918
                             4 O    0.141     7 O    0.141
     6   6 C    3.941 --     7 O    1.741     5 N    1.136     1 C    1.004
     7   8 O    2.025 --     6 C    1.741     5 N    0.141
     8   1 H    0.992 --     1 C    0.950
     9   1 H    0.992 --     1 C    0.950
    10   1 H    0.992 --     2 C    0.950
    11   1 H    0.992 --     2 C    0.950
    12   1 H    0.952 --     5 N    0.918
 ---------------------------------------------------------------------------

Topologies differ in total number of bonds
Writing topology from bond orders to xtbtopo.mol

molecular dipole:
                 x           y           z       tot (Debye)
 q only:       -0.383      -0.893       0.018
   full:       -0.374      -0.873       0.018       2.415
molecular quadrupole (traceless):
                xx          xy          yy          xz          yz          zz
 q only:       -9.445       7.561       5.145      -3.443       1.394       4.299
  q+dip:      -13.005      10.234       6.749      -4.788       1.954       6.256
   full:      -13.066       9.800       5.871      -4.937       2.059       7.195


           -------------------------------------------------
          | TOTAL ENERGY              -22.179693542360 Eh   |
          | GRADIENT NORM               0.177400853153 Eh/α |
          | HOMO-LUMO GAP               3.697407706444 eV   |
           -------------------------------------------------
########################################################################
[WARNING] Runtime exception occurred
-2- restart_readRestart: Dimension missmatch in restart file.
-1- restart_readRestart: Number of electron missmatch in restart file.
########################################################################

------------------------------------------------------------------------
 unit  open   action     filename
  129 false : read       dft_tmp\516.xyz
  129 false : read       dft_tmp\516.xyz
  129 false : read       dft_tmp\516.xyz
  129 false : read       C:\Users\nkapa\Downloads\xtb-6.7.1pre-windows-x86_64\xtb-6.7.1\share\xtb\param_gfn2-xtb.txt
  129 false : read       xtbrestart
  129 false : replaced   charges
  129 false : replaced   wbo
  129 false : replaced   xtbtopo.mol
  129 false : replaced   xtbrestart

------------------------------------------------------------------------
 * finished run on 2025/06/23 at 11:32:37.222     
------------------------------------------------------------------------
 total:
 * wall-time:     0 d,  0 h,  0 min,  0.054 sec
 *  cpu-time:     0 d,  0 h,  0 min,  0.234 sec
 * ratio c/w:     4.340 speedup
 SCF:
 * wall-time:     0 d,  0 h,  0 min,  0.008 sec
 *  cpu-time:     0 d,  0 h,  0 min,  0.047 sec
 * ratio c/w:     5.859 speedup

normal termination of xtb
