      -----------------------------------------------------------      
     |                   =====================                   |     
     |                           x T B                           |     
     |                   =====================                   |     
     |                         S. Grimme                         |     
     |          Mulliken Center for Theoretical Chemistry        |     
     |                    University of Bonn                     |     
      -----------------------------------------------------------      

   * xtb version 6.7.1pre (5071a88) compiled by 'Marcel@Raven' on 2024-07-23

   xtb is free software: you can redistribute it and/or modify it under
   the terms of the GNU Lesser General Public License as published by
   the Free Software Foundation, either version 3 of the License, or
   (at your option) any later version.
   
   xtb is distributed in the hope that it will be useful,
   but WITHOUT ANY WARRANTY; without even the implied warranty of
   MERCHANTABILITY or FITNESS FOR A PARTICULAR PURPOSE.  See the
   GNU Lesser General Public License for more details.
   
   Cite this work as:
   * C. Bannwarth, E. Caldeweyher, S. Ehlert, A. Hansen, P. Pracht,
     J. Seibert, S. Spicher, S. Grimme, WIREs Comput. Mol. Sci., 2020, 11,
     e01493. DOI: 10.1002/wcms.1493
   
   for GFN2-xTB:
   * C. Bannwarth, S. Ehlert and S. Grimme., J. Chem. Theory Comput., 2019,
     15, 1652-1671. DOI: 10.1021/acs.jctc.8b01176
   for GFN1-xTB:
   * S. Grimme, C. Bannwarth, P. Shushkov, J. Chem. Theory Comput., 2017,
     13, 1989-2009. DOI: 10.1021/acs.jctc.7b00118
   for GFN0-xTB:
   * P. Pracht, E. Caldeweyher, S. Ehlert, S. Grimme, ChemRxiv, 2019, preprint.
     DOI: 10.26434/chemrxiv.8326202.v1
   for GFN-FF:
   * S. Spicher and S. Grimme, Angew. Chem. Int. Ed., 2020, 59, 15665-15673.
     DOI: 10.1002/anie.202004239
   
   for ALPB and GBSA implicit solvation:
   * S. Ehlert, M. Stahn, S. Spicher, S. Grimme, J. Chem. Theory Comput.,
     2021, 17, 4250-4261. DOI: 10.1021/acs.jctc.1c00471
   
   for ddCOSMO and CPCM-X implicit solvation:
   * M. Stahn, S. Ehlert, S. Grimme, J. Phys. Chem. A,
     2023, XX, XXXX-XXXX. DOI: 10.1021/acs.jpca.3c04382
   
   for DFT-D4:
   * E. Caldeweyher, C. Bannwarth and S. Grimme, J. Chem. Phys., 2017,
     147, 034112. DOI: 10.1063/1.4993215
   * E. Caldeweyher, S. Ehlert, A. Hansen, H. Neugebauer, S. Spicher,
     C. Bannwarth and S. Grimme, J. Chem. Phys., 2019, 150, 154122.
     DOI: 10.1063/1.5090222
   * E. Caldeweyher, J.-M. Mewes, S. Ehlert and S. Grimme, Phys. Chem. Chem. Phys.
     2020, 22, 8499-8512. DOI: 10.1039/D0CP00502A
   
   for sTDA-xTB:
   * S. Grimme and C. Bannwarth, J. Chem. Phys., 2016, 145, 054103.
     DOI: 10.1063/1.4959605
   
   in the mass-spec context:
   * V. Asgeirsson, C. Bauer and S. Grimme, Chem. Sci., 2017, 8, 4879.
     DOI: 10.1039/c7sc00601b
   * J. Koopman and S. Grimme, ACS Omega 2019, 4, 12, 15120-15133.
     DOI: 10.1021/acsomega.9b02011
   
   for metadynamics refer to:
   * S. Grimme, J. Chem. Theory Comput., 2019, 155, 2847-2862
     DOI: 10.1021/acs.jctc.9b00143
   
   for SPH calculations refer to:
   * S. Spicher and S. Grimme, J. Chem. Theory Comput., 2021, 17, 1701-1714
     DOI: 10.1021/acs.jctc.0c01306
   
   for ONIOM refer to:
   * C. Plett, A. Katbashev, S. Ehlert, S. Grimme, M. Bursch,
     Phys. Chem. Chem. Phys., 2023, 25, 17860-17868. DOI: 10.1039/D3CP02178E
   
   for DIPRO refer to:
   * J. Kohn, N. Gildemeister, S. Grimme, D. Fazzi, A. Hansen,
     J. Chem. Phys., 2023, just accepted.
   
   for PTB refer to:
   * S. Grimme, M. Mueller, A. Hansen, J. Chem. Phys., 2023, 158, 124111.
     DOI: 10.1063/5.0137838
   
   with help from (in alphabetical order)
   P. Atkinson, C. Bannwarth, F. Bohle, G. Brandenburg, E. Caldeweyher
   M. Checinski, S. Dohm, S. Ehlert, S. Ehrlich, I. Gerasimov, C. Hölzer
   A. Katbashev, J. Kohn, J. Koopman, C. Lavigne, S. Lehtola, F. März, M. Müller,
   F. Musil, H. Neugebauer, J. Pisarek, C. Plett, P. Pracht, F. Pultar,
   J. Seibert, P. Shushkov, S. Spicher, M. Stahn, M. Steiner, T. Strunk,
   J. Stückrath, T. Rose, and J. Unsleber
   
 * started run on 2025/06/23 at 11:32:38.617     
$$$$$$$$$$$$$$$$$$$$$$$$$$$$$$$$$$$$$$$$$$$$$$$$$$$$$$$$$$$$$$$$$$$$$$$$
 CONSTRAINTS & SCANS: DEBUG SECTION
$$$$$$$$$$$$$$$$$$$$$$$$$$$$$$$$$$$$$$$$$$$$$$$$$$$$$$$$$$$$$$$$$$$$$$$$
   ID    Z sym.   atoms
    1    8 O      1, 3, 6, 8, 9
    2    6 C      2, 4, 5, 7
    3    1 H      10-13
$$$$$$$$$$$$$$$$$$$$$$$$$$$$$$$$$$$$$$$$$$$$$$$$$$$$$$$$$$$$$$$$$$$$$$$$

           -------------------------------------------------
          |                Calculation Setup                |
           -------------------------------------------------

          program call               : C:\Users\nkapa\Downloads\xtb-6.7.1pre-windows-x86_64\xtb-6.7.1\bin\xtb.EXE dft_tmp\526.xyz --gfn2 --parallel 8 --verbose --chrg -2
          coordinate file            : dft_tmp\526.xyz
          xtbhome directory          : C:\Users\nkapa\AppData\Roaming\SPB_Data
          path for xtb               : C:\Users\nkapa\Downloads\xtb-6.7.1pre-windows-x86_64\xtb-6.7.1\share\xtb
          xcontrol input file        : dft_tmp\526.xyz
          omp threads                :                     8


           -------------------------------------------------
          |                 G F N 2 - x T B                 |
           -------------------------------------------------

        Reference                      10.1021/acs.jctc.8b01176
      * Hamiltonian:
        H0-scaling (s, p, d)           1.850000    2.230000    2.230000
        zeta-weighting                 0.500000
      * Dispersion:
        s8                             2.700000
        a1                             0.520000
        a2                             5.000000
        s9                             5.000000
      * Repulsion:
        kExp                           1.500000    1.000000
        rExp                           1.000000
      * Coulomb:
        alpha                          2.000000
        third order                    shell-resolved
        anisotropic                    true
        a3                             3.000000
        a5                             4.000000
        cn-shift                       1.200000
        cn-exp                         4.000000
        max-rad                        5.000000


          ...................................................
          :                      SETUP                      :
          :.................................................:
          :  # basis functions                  40          :
          :  # atomic orbitals                  40          :
          :  # shells                           22          :
          :  # electrons                        52          :
          :  max. iterations                   250          :
          :  Hamiltonian                  GFN2-xTB          :
          :  restarted?                      false          :
          :  GBSA solvation                  false          :
          :  PC potential                    false          :
          :  electronic temp.          300.0000000     K    :
          :  accuracy                    1.0000000          :
          :  -> integral cutoff          0.2500000E+02      :
          :  -> integral neglect         0.1000000E-07      :
          :  -> SCF convergence          0.1000000E-05 Eh   :
          :  -> wf. convergence          0.1000000E-03 e    :
          :  Broyden damping             0.4000000          :
          :  net charge                         -2          :
          :  unpaired electrons                  0          :
          ...................................................

 iter      E             dE          RMSdq      gap      omega  full diag
   1    -31.2735422 -0.312735E+02  0.618E+00    4.42       0.0  T
   2    -31.4074055 -0.133863E+00  0.277E+00    3.39       1.0  T
   3    -31.4235655 -0.161600E-01  0.194E+00    4.00       1.0  T
   4    -31.4309000 -0.733446E-02  0.356E-01    3.56       1.0  T
   5    -31.4319719 -0.107198E-02  0.121E-01    3.69       1.0  T
   6    -31.4319810 -0.908389E-05  0.508E-02    3.70       1.0  T
   7    -31.4319864 -0.541704E-05  0.113E-02    3.70       2.4  T
   8    -31.4319867 -0.247600E-06  0.526E-03    3.70       5.3  T
   9    -31.4319868 -0.111623E-06  0.203E-03    3.70      13.7  T
  10    -31.4319868 -0.365981E-08  0.783E-04    3.70      35.4  T
  11    -31.4319868 -0.398451E-08  0.193E-04    3.70     144.0  T

   *** convergence criteria satisfied after 11 iterations ***

         #    Occupation            Energy/Eh            Energy/eV
      -------------------------------------------------------------
         1        2.0000           -0.4099695             -11.1558
       ...           ...                  ...                  ...
        20        2.0000           -0.1414358              -3.8487
        21        2.0000           -0.0796950              -2.1686
        22        2.0000           -0.0787000              -2.1415
        23        2.0000           -0.0694993              -1.8912
        24        2.0000           -0.0677332              -1.8431
        25        2.0000           -0.0566316              -1.5410
        26        2.0000           -0.0480353              -1.3071 (HOMO)
        27                          0.0879094               2.3921 (LUMO)
        28                          0.1092236               2.9721
        29                          0.3339237               9.0865
        30                          0.3630810               9.8799
        31                          0.4019785              10.9384
       ...                                ...                  ...
        40                          0.8084163              21.9981
      -------------------------------------------------------------
                  HL-Gap            0.1359447 Eh            3.6992 eV
             Fermi-level            0.0199371 Eh            0.5425 eV

 SCC (total)                   0 d,  0 h,  0 min,  0.012 sec
 SCC setup                      ...        0 min,  0.001 sec (  8.333%)
 Dispersion                     ...        0 min,  0.000 sec (  0.000%)
 classical contributions        ...        0 min,  0.000 sec (  0.000%)
 integral evaluation            ...        0 min,  0.001 sec (  8.335%)
 iterations                     ...        0 min,  0.008 sec ( 66.665%)
 molecular gradient             ...        0 min,  0.002 sec ( 16.667%)
 printout                       ...        0 min,  0.000 sec (  0.000%)

         :::::::::::::::::::::::::::::::::::::::::::::::::::::
         ::                     SUMMARY                     ::
         :::::::::::::::::::::::::::::::::::::::::::::::::::::
         :: total energy             -31.258195603602 Eh    ::
         :: gradient norm              0.228257358289 Eh/a0 ::
         :: HOMO-LUMO gap              3.699243342967 eV    ::
         ::.................................................::
         :: HOMO orbital eigv.        -1.307106872977 eV    ::
         :: LUMO orbital eigv.         2.392136469990 eV    ::
         ::.................................................::
         :: SCC energy               -31.431973401849 Eh    ::
         :: -> isotropic ES            0.560285822172 Eh    ::
         :: -> anisotropic ES         -0.002350228249 Eh    ::
         :: -> anisotropic XC         -0.004921745213 Eh    ::
         :: -> dispersion             -0.010420707123 Eh    ::
         :: repulsion energy           0.173777798247 Eh    ::
         :: add. restraining           0.000000000000 Eh    ::
         :: total charge              -2.000000000000 e     ::
         ::.................................................::
         :: atomisation energy         4.363782671100 Eh    ::
         :::::::::::::::::::::::::::::::::::::::::::::::::::::

           -------------------------------------------------
          |                Property Printout                |
           -------------------------------------------------

    * Orbital Energies and Occupations

         #    Occupation            Energy/Eh            Energy/eV
      -------------------------------------------------------------
         1        2.0000           -0.4099695             -11.1558
       ...           ...                  ...                  ...
        14        2.0000           -0.1979322              -5.3860
        15        2.0000           -0.1885240              -5.1300
        16        2.0000           -0.1807336              -4.9180
        17        2.0000           -0.1728187              -4.7026
        18        2.0000           -0.1618172              -4.4033
        19        2.0000           -0.1533467              -4.1728
        20        2.0000           -0.1414358              -3.8487
        21        2.0000           -0.0796950              -2.1686
        22        2.0000           -0.0787000              -2.1415
        23        2.0000           -0.0694993              -1.8912
        24        2.0000           -0.0677332              -1.8431
        25        2.0000           -0.0566316              -1.5410
        26        2.0000           -0.0480353              -1.3071 (HOMO)
        27                          0.0879094               2.3921 (LUMO)
        28                          0.1092236               2.9721
        29                          0.3339237               9.0865
        30                          0.3630810               9.8799
        31                          0.4019785              10.9384
        32                          0.4121881              11.2162
        33                          0.4163970              11.3307
        34                          0.4616636              12.5625
        35                          0.4740291              12.8990
        36                          0.5069368              13.7945
        37                          0.5734032              15.6031
       ...                                ...                  ...
        40                          0.8084163              21.9981
      -------------------------------------------------------------
                  HL-Gap            0.1359447 Eh            3.6992 eV
             Fermi-level            0.0199371 Eh            0.5425 eV

     #   Z          covCN         q      C6AA      α(0)
     1   8 O        0.856    -0.586    25.781     6.808
     2   6 C        2.688     0.330    21.393     7.569
     3   8 O        0.852    -0.685    28.313     7.134
     4   6 C        3.798    -0.060    21.651     6.625
     5   6 C        3.726     0.113    18.827     6.195
     6   8 O        1.652    -0.454    21.930     6.322
     7   6 C        2.688     0.312    21.698     7.623
     8   8 O        0.856    -0.580    25.624     6.787
     9   8 O        0.852    -0.682    28.217     7.122
    10   1 H        0.921     0.003     3.008     2.713
    11   1 H        0.921    -0.005     3.141     2.772
    12   1 H        0.921     0.016     2.798     2.616
    13   1 H        0.801     0.278     0.793     1.400

 Mol. C6AA /au·bohr⁶  :       2464.012852
 Mol. C8AA /au·bohr⁸  :      54295.155681
 Mol. α(0) /au        :         71.684651


Wiberg/Mayer (AO) data.
largest (>0.10) Wiberg bond orders for each atom

 ---------------------------------------------------------------------------
     #   Z sym  total        # sym  WBO       # sym  WBO       # sym  WBO
 ---------------------------------------------------------------------------
     1   8 O    1.846 --     2 C    1.555     3 O    0.226
     2   6 C    3.944 --     1 O    1.555     3 O    1.397     4 C    0.966
     3   8 O    1.685 --     2 C    1.397     1 O    0.226
     4   6 C    3.990 --    10 H    0.973    11 H    0.972     2 C    0.966
                             5 C    0.958
     5   6 C    3.941 --     6 O    0.980    12 H    0.962     4 C    0.958
                             7 C    0.943
     6   8 O    1.959 --     5 C    0.980    13 H    0.901
     7   6 C    3.943 --     8 O    1.556     9 O    1.401     5 C    0.943
     8   8 O    1.853 --     7 C    1.556     9 O    0.230
     9   8 O    1.692 --     7 C    1.401     8 O    0.230
    10   1 H    1.000 --     4 C    0.973
    11   1 H    1.000 --     4 C    0.972
    12   1 H    1.000 --     5 C    0.962
    13   1 H    0.923 --     6 O    0.901
 ---------------------------------------------------------------------------

Topologies differ in total number of bonds
Writing topology from bond orders to xtbtopo.mol

molecular dipole:
                 x           y           z       tot (Debye)
 q only:        0.136      -0.234       0.861
   full:        0.129      -0.109       1.056       2.718
molecular quadrupole (traceless):
                xx          xy          yy          xz          yz          zz
 q only:      -32.328     -26.403      13.019      -6.950       1.517      19.310
  q+dip:      -34.390     -28.637      13.267      -7.932       1.843      21.123
   full:      -34.586     -29.759      13.855      -8.499       2.114      20.731


           -------------------------------------------------
          | TOTAL ENERGY              -31.258195603602 Eh   |
          | GRADIENT NORM               0.228257358289 Eh/α |
          | HOMO-LUMO GAP               3.699243342967 eV   |
           -------------------------------------------------
########################################################################
[WARNING] Runtime exception occurred
-2- restart_readRestart: Dimension missmatch in restart file.
-1- restart_readRestart: Number of electron missmatch in restart file.
########################################################################

------------------------------------------------------------------------
 unit  open   action     filename
  129 false : read       dft_tmp\526.xyz
  129 false : read       dft_tmp\526.xyz
  129 false : read       dft_tmp\526.xyz
  129 false : read       C:\Users\nkapa\Downloads\xtb-6.7.1pre-windows-x86_64\xtb-6.7.1\share\xtb\param_gfn2-xtb.txt
  129 false : read       xtbrestart
  129 false : replaced   charges
  129 false : replaced   wbo
  129 false : replaced   xtbtopo.mol
  129 false : replaced   xtbrestart

------------------------------------------------------------------------
 * finished run on 2025/06/23 at 11:32:38.663     
------------------------------------------------------------------------
 total:
 * wall-time:     0 d,  0 h,  0 min,  0.045 sec
 *  cpu-time:     0 d,  0 h,  0 min,  0.250 sec
 * ratio c/w:     5.556 speedup
 SCF:
 * wall-time:     0 d,  0 h,  0 min,  0.013 sec
 *  cpu-time:     0 d,  0 h,  0 min,  0.109 sec
 * ratio c/w:     8.413 speedup

normal termination of xtb
