18

C 1.551666 -0.813985 0.114786
C 0.865775 0.555596 -0.043543
C -0.527085 0.630866 0.640952
C -1.605640 -0.269412 -0.005052
O -1.457279 -1.605087 0.395437
O -0.969300 1.965651 0.674924
O 0.777473 0.887531 -1.407479
O 1.014374 -1.765410 -0.765685
H 2.645779 -0.702492 -0.067194
H 1.434788 -1.180175 1.156909
H 1.524882 1.291093 0.477842
H -0.405612 0.314135 1.700112
H -2.619264 0.092508 0.283789
H -1.545753 -0.214450 -1.112309
H -1.792593 -1.663054 1.328132
H -1.198734 2.232843 -0.253466
H 0.846855 1.875506 -1.475347
H 1.459666 -1.631664 -1.642808
