      -----------------------------------------------------------      
     |                   =====================                   |     
     |                           x T B                           |     
     |                   =====================                   |     
     |                         S. Grimme                         |     
     |          Mulliken Center for Theoretical Chemistry        |     
     |                    University of Bonn                     |     
      -----------------------------------------------------------      

   * xtb version 6.7.1pre (5071a88) compiled by 'Marcel@Raven' on 2024-07-23

   xtb is free software: you can redistribute it and/or modify it under
   the terms of the GNU Lesser General Public License as published by
   the Free Software Foundation, either version 3 of the License, or
   (at your option) any later version.
   
   xtb is distributed in the hope that it will be useful,
   but WITHOUT ANY WARRANTY; without even the implied warranty of
   MERCHANTABILITY or FITNESS FOR A PARTICULAR PURPOSE.  See the
   GNU Lesser General Public License for more details.
   
   Cite this work as:
   * C. Bannwarth, E. Caldeweyher, S. Ehlert, A. Hansen, P. Pracht,
     J. Seibert, S. Spicher, S. Grimme, WIREs Comput. Mol. Sci., 2020, 11,
     e01493. DOI: 10.1002/wcms.1493
   
   for GFN2-xTB:
   * C. Bannwarth, S. Ehlert and S. Grimme., J. Chem. Theory Comput., 2019,
     15, 1652-1671. DOI: 10.1021/acs.jctc.8b01176
   for GFN1-xTB:
   * S. Grimme, C. Bannwarth, P. Shushkov, J. Chem. Theory Comput., 2017,
     13, 1989-2009. DOI: 10.1021/acs.jctc.7b00118
   for GFN0-xTB:
   * P. Pracht, E. Caldeweyher, S. Ehlert, S. Grimme, ChemRxiv, 2019, preprint.
     DOI: 10.26434/chemrxiv.8326202.v1
   for GFN-FF:
   * S. Spicher and S. Grimme, Angew. Chem. Int. Ed., 2020, 59, 15665-15673.
     DOI: 10.1002/anie.202004239
   
   for ALPB and GBSA implicit solvation:
   * S. Ehlert, M. Stahn, S. Spicher, S. Grimme, J. Chem. Theory Comput.,
     2021, 17, 4250-4261. DOI: 10.1021/acs.jctc.1c00471
   
   for ddCOSMO and CPCM-X implicit solvation:
   * M. Stahn, S. Ehlert, S. Grimme, J. Phys. Chem. A,
     2023, XX, XXXX-XXXX. DOI: 10.1021/acs.jpca.3c04382
   
   for DFT-D4:
   * E. Caldeweyher, C. Bannwarth and S. Grimme, J. Chem. Phys., 2017,
     147, 034112. DOI: 10.1063/1.4993215
   * E. Caldeweyher, S. Ehlert, A. Hansen, H. Neugebauer, S. Spicher,
     C. Bannwarth and S. Grimme, J. Chem. Phys., 2019, 150, 154122.
     DOI: 10.1063/1.5090222
   * E. Caldeweyher, J.-M. Mewes, S. Ehlert and S. Grimme, Phys. Chem. Chem. Phys.
     2020, 22, 8499-8512. DOI: 10.1039/D0CP00502A
   
   for sTDA-xTB:
   * S. Grimme and C. Bannwarth, J. Chem. Phys., 2016, 145, 054103.
     DOI: 10.1063/1.4959605
   
   in the mass-spec context:
   * V. Asgeirsson, C. Bauer and S. Grimme, Chem. Sci., 2017, 8, 4879.
     DOI: 10.1039/c7sc00601b
   * J. Koopman and S. Grimme, ACS Omega 2019, 4, 12, 15120-15133.
     DOI: 10.1021/acsomega.9b02011
   
   for metadynamics refer to:
   * S. Grimme, J. Chem. Theory Comput., 2019, 155, 2847-2862
     DOI: 10.1021/acs.jctc.9b00143
   
   for SPH calculations refer to:
   * S. Spicher and S. Grimme, J. Chem. Theory Comput., 2021, 17, 1701-1714
     DOI: 10.1021/acs.jctc.0c01306
   
   for ONIOM refer to:
   * C. Plett, A. Katbashev, S. Ehlert, S. Grimme, M. Bursch,
     Phys. Chem. Chem. Phys., 2023, 25, 17860-17868. DOI: 10.1039/D3CP02178E
   
   for DIPRO refer to:
   * J. Kohn, N. Gildemeister, S. Grimme, D. Fazzi, A. Hansen,
     J. Chem. Phys., 2023, just accepted.
   
   for PTB refer to:
   * S. Grimme, M. Mueller, A. Hansen, J. Chem. Phys., 2023, 158, 124111.
     DOI: 10.1063/5.0137838
   
   with help from (in alphabetical order)
   P. Atkinson, C. Bannwarth, F. Bohle, G. Brandenburg, E. Caldeweyher
   M. Checinski, S. Dohm, S. Ehlert, S. Ehrlich, I. Gerasimov, C. Hölzer
   A. Katbashev, J. Kohn, J. Koopman, C. Lavigne, S. Lehtola, F. März, M. Müller,
   F. Musil, H. Neugebauer, J. Pisarek, C. Plett, P. Pracht, F. Pultar,
   J. Seibert, P. Shushkov, S. Spicher, M. Stahn, M. Steiner, T. Strunk,
   J. Stückrath, T. Rose, and J. Unsleber
   
 * started run on 2025/06/23 at 11:32:39.065     
$$$$$$$$$$$$$$$$$$$$$$$$$$$$$$$$$$$$$$$$$$$$$$$$$$$$$$$$$$$$$$$$$$$$$$$$
 CONSTRAINTS & SCANS: DEBUG SECTION
$$$$$$$$$$$$$$$$$$$$$$$$$$$$$$$$$$$$$$$$$$$$$$$$$$$$$$$$$$$$$$$$$$$$$$$$
   ID    Z sym.   atoms
    1    6 C      1-3
    2    8 O      4
    3    1 H      5-12
$$$$$$$$$$$$$$$$$$$$$$$$$$$$$$$$$$$$$$$$$$$$$$$$$$$$$$$$$$$$$$$$$$$$$$$$

           -------------------------------------------------
          |                Calculation Setup                |
           -------------------------------------------------

          program call               : C:\Users\nkapa\Downloads\xtb-6.7.1pre-windows-x86_64\xtb-6.7.1\bin\xtb.EXE dft_tmp\530.xyz --gfn2 --parallel 8 --verbose
          coordinate file            : dft_tmp\530.xyz
          xtbhome directory          : C:\Users\nkapa\AppData\Roaming\SPB_Data
          path for xtb               : C:\Users\nkapa\Downloads\xtb-6.7.1pre-windows-x86_64\xtb-6.7.1\share\xtb
          xcontrol input file        : dft_tmp\530.xyz
          omp threads                :                     8


           -------------------------------------------------
          |                 G F N 2 - x T B                 |
           -------------------------------------------------

        Reference                      10.1021/acs.jctc.8b01176
      * Hamiltonian:
        H0-scaling (s, p, d)           1.850000    2.230000    2.230000
        zeta-weighting                 0.500000
      * Dispersion:
        s8                             2.700000
        a1                             0.520000
        a2                             5.000000
        s9                             5.000000
      * Repulsion:
        kExp                           1.500000    1.000000
        rExp                           1.000000
      * Coulomb:
        alpha                          2.000000
        third order                    shell-resolved
        anisotropic                    true
        a3                             3.000000
        a5                             4.000000
        cn-shift                       1.200000
        cn-exp                         4.000000
        max-rad                        5.000000


          ...................................................
          :                      SETUP                      :
          :.................................................:
          :  # basis functions                  24          :
          :  # atomic orbitals                  24          :
          :  # shells                           16          :
          :  # electrons                        26          :
          :  max. iterations                   250          :
          :  Hamiltonian                  GFN2-xTB          :
          :  restarted?                      false          :
          :  GBSA solvation                  false          :
          :  PC potential                    false          :
          :  electronic temp.          300.0000000     K    :
          :  accuracy                    1.0000000          :
          :  -> integral cutoff          0.2500000E+02      :
          :  -> integral neglect         0.1000000E-07      :
          :  -> SCF convergence          0.1000000E-05 Eh   :
          :  -> wf. convergence          0.1000000E-03 e    :
          :  Broyden damping             0.4000000          :
          :  net charge                          0          :
          :  unpaired electrons                  0          :
          ...................................................

 iter      E             dE          RMSdq      gap      omega  full diag
   1    -14.6715382 -0.146715E+02  0.333E+00   12.45       0.0  T
   2    -14.7008870 -0.293489E-01  0.175E+00   12.27       1.0  T
   3    -14.7014254 -0.538398E-03  0.777E-01   12.28       1.0  T
   4    -14.7015782 -0.152748E-03  0.113E-01   12.27       1.0  T
   5    -14.7015913 -0.131334E-04  0.621E-02   12.28       1.0  T
   6    -14.7015926 -0.130555E-05  0.951E-03   12.29       3.0  T
   7    -14.7015928 -0.177319E-06  0.447E-03   12.29       6.5  T
   8    -14.7015928 -0.225182E-07  0.170E-03   12.29      16.9  T
   9    -14.7015928 -0.177898E-08  0.354E-04   12.29      81.4  T
  10    -14.7015928 -0.561029E-09  0.957E-05   12.29     301.6  T

   *** convergence criteria satisfied after 10 iterations ***

         #    Occupation            Energy/Eh            Energy/eV
      -------------------------------------------------------------
         1        2.0000           -0.6847349             -18.6326
       ...           ...                  ...                  ...
         7        2.0000           -0.5169004             -14.0656
         8        2.0000           -0.4868320             -13.2474
         9        2.0000           -0.4710898             -12.8190
        10        2.0000           -0.4571111             -12.4386
        11        2.0000           -0.4363138             -11.8727
        12        2.0000           -0.4352001             -11.8424
        13        2.0000           -0.4074939             -11.0885 (HOMO)
        14                          0.0442589               1.2043 (LUMO)
        15                          0.0923347               2.5126
        16                          0.0983720               2.6768
        17                          0.1209345               3.2908
        18                          0.1339572               3.6452
       ...                                ...                  ...
        24                          0.2631718               7.1613
      -------------------------------------------------------------
                  HL-Gap            0.4517528 Eh           12.2928 eV
             Fermi-level           -0.1816175 Eh           -4.9421 eV

 SCC (total)                   0 d,  0 h,  0 min,  0.007 sec
 SCC setup                      ...        0 min,  0.001 sec ( 14.285%)
 Dispersion                     ...        0 min,  0.000 sec (  0.000%)
 classical contributions        ...        0 min,  0.000 sec (  0.000%)
 integral evaluation            ...        0 min,  0.001 sec ( 14.288%)
 iterations                     ...        0 min,  0.004 sec ( 57.142%)
 molecular gradient             ...        0 min,  0.001 sec ( 14.285%)
 printout                       ...        0 min,  0.000 sec (  0.000%)

         :::::::::::::::::::::::::::::::::::::::::::::::::::::
         ::                     SUMMARY                     ::
         :::::::::::::::::::::::::::::::::::::::::::::::::::::
         :: total energy             -14.554517653261 Eh    ::
         :: gradient norm              0.049459785333 Eh/a0 ::
         :: HOMO-LUMO gap             12.292818215402 eV    ::
         ::.................................................::
         :: HOMO orbital eigv.       -11.088473554779 eV    ::
         :: LUMO orbital eigv.         1.204344660623 eV    ::
         ::.................................................::
         :: SCC energy               -14.701589331711 Eh    ::
         :: -> isotropic ES            0.025343365145 Eh    ::
         :: -> anisotropic ES          0.004384932584 Eh    ::
         :: -> anisotropic XC          0.004772205351 Eh    ::
         :: -> dispersion             -0.004936885751 Eh    ::
         :: repulsion energy           0.147071678450 Eh    ::
         :: add. restraining           0.000000000000 Eh    ::
         :: total charge               0.000000000000 e     ::
         ::.................................................::
         :: atomisation energy         2.772224344380 Eh    ::
         :::::::::::::::::::::::::::::::::::::::::::::::::::::

           -------------------------------------------------
          |                Property Printout                |
           -------------------------------------------------

    * Orbital Energies and Occupations

         #    Occupation            Energy/Eh            Energy/eV
      -------------------------------------------------------------
         1        2.0000           -0.6847349             -18.6326
         2        2.0000           -0.6267372             -17.0544
         3        2.0000           -0.5997594             -16.3203
         4        2.0000           -0.5765721             -15.6893
         5        2.0000           -0.5485075             -14.9256
         6        2.0000           -0.5299948             -14.4219
         7        2.0000           -0.5169004             -14.0656
         8        2.0000           -0.4868320             -13.2474
         9        2.0000           -0.4710898             -12.8190
        10        2.0000           -0.4571111             -12.4386
        11        2.0000           -0.4363138             -11.8727
        12        2.0000           -0.4352001             -11.8424
        13        2.0000           -0.4074939             -11.0885 (HOMO)
        14                          0.0442589               1.2043 (LUMO)
        15                          0.0923347               2.5126
        16                          0.0983720               2.6768
        17                          0.1209345               3.2908
        18                          0.1339572               3.6452
        19                          0.1460463               3.9741
        20                          0.1510969               4.1116
        21                          0.1807073               4.9173
        22                          0.2294682               6.2441
        23                          0.2384035               6.4873
        24                          0.2631718               7.1613
      -------------------------------------------------------------
                  HL-Gap            0.4517528 Eh           12.2928 eV
             Fermi-level           -0.1816175 Eh           -4.9421 eV

     #   Z          covCN         q      C6AA      α(0)
     1   6 C        3.742    -0.096    22.417     6.755
     2   6 C        3.792    -0.060    21.660     6.628
     3   6 C        3.670     0.084    19.412     6.316
     4   8 O        1.652    -0.432    21.486     6.257
     5   1 H        0.922     0.030     2.585     2.515
     6   1 H        0.922     0.047     2.361     2.403
     7   1 H        0.921     0.036     2.509     2.477
     8   1 H        0.921     0.027     2.632     2.537
     9   1 H        0.921     0.029     2.600     2.522
    10   1 H        0.921     0.043     2.409     2.427
    11   1 H        0.921     0.007     2.933     2.678
    12   1 H        0.801     0.285     0.769     1.378

 Mol. C6AA /au·bohr⁶  :        927.837639
 Mol. C8AA /au·bohr⁸  :      18714.353006
 Mol. α(0) /au        :         44.892678


Wiberg/Mayer (AO) data.
largest (>0.10) Wiberg bond orders for each atom

 ---------------------------------------------------------------------------
     #   Z sym  total        # sym  WBO       # sym  WBO       # sym  WBO
 ---------------------------------------------------------------------------
     1   6 C    3.996 --     2 C    1.021     5 H    0.988     7 H    0.987
                             6 H    0.986
     2   6 C    3.998 --     1 C    1.021     3 C    0.996     8 H    0.977
                             9 H    0.976
     3   6 C    3.958 --     4 O    1.004     2 C    0.996    11 H    0.972
                            10 H    0.970
     4   8 O    1.968 --     3 C    1.004    12 H    0.904
     5   1 H    0.999 --     1 C    0.988
     6   1 H    0.998 --     1 C    0.986
     7   1 H    0.999 --     1 C    0.987
     8   1 H    0.999 --     2 C    0.977
     9   1 H    0.999 --     2 C    0.976
    10   1 H    0.998 --     3 C    0.970
    11   1 H    1.000 --     3 C    0.972
    12   1 H    0.919 --     4 O    0.904
 ---------------------------------------------------------------------------

Topologies differ in total number of bonds
Writing topology from bond orders to xtbtopo.mol

molecular dipole:
                 x           y           z       tot (Debye)
 q only:        0.018       0.501      -0.045
   full:        0.099       0.726      -0.087       1.876
molecular quadrupole (traceless):
                xx          xy          yy          xz          yz          zz
 q only:        1.241       2.354      -2.176       0.713       1.006       0.935
  q+dip:        1.626       3.622      -2.767       0.985       2.242       1.142
   full:        1.707       3.520      -2.862       1.076       1.894       1.155


           -------------------------------------------------
          | TOTAL ENERGY              -14.554517653261 Eh   |
          | GRADIENT NORM               0.049459785333 Eh/α |
          | HOMO-LUMO GAP              12.292818215402 eV   |
           -------------------------------------------------
########################################################################
[WARNING] Runtime exception occurred
-2- restart_readRestart: Dimension missmatch in restart file.
-1- restart_readRestart: Number of electron missmatch in restart file.
########################################################################

------------------------------------------------------------------------
 unit  open   action     filename
  129 false : read       dft_tmp\530.xyz
  129 false : read       dft_tmp\530.xyz
  129 false : read       dft_tmp\530.xyz
  129 false : read       C:\Users\nkapa\Downloads\xtb-6.7.1pre-windows-x86_64\xtb-6.7.1\share\xtb\param_gfn2-xtb.txt
  129 false : read       xtbrestart
  129 false : replaced   charges
  129 false : replaced   wbo
  129 false : replaced   xtbtopo.mol
  129 false : replaced   xtbrestart

------------------------------------------------------------------------
 * finished run on 2025/06/23 at 11:32:39.111     
------------------------------------------------------------------------
 total:
 * wall-time:     0 d,  0 h,  0 min,  0.044 sec
 *  cpu-time:     0 d,  0 h,  0 min,  0.188 sec
 * ratio c/w:     4.261 speedup
 SCF:
 * wall-time:     0 d,  0 h,  0 min,  0.008 sec
 *  cpu-time:     0 d,  0 h,  0 min,  0.062 sec
 * ratio c/w:     7.812 speedup

normal termination of xtb
