      -----------------------------------------------------------      
     |                   =====================                   |     
     |                           x T B                           |     
     |                   =====================                   |     
     |                         S. Grimme                         |     
     |          Mulliken Center for Theoretical Chemistry        |     
     |                    University of Bonn                     |     
      -----------------------------------------------------------      

   * xtb version 6.7.1pre (5071a88) compiled by 'Marcel@Raven' on 2024-07-23

   xtb is free software: you can redistribute it and/or modify it under
   the terms of the GNU Lesser General Public License as published by
   the Free Software Foundation, either version 3 of the License, or
   (at your option) any later version.
   
   xtb is distributed in the hope that it will be useful,
   but WITHOUT ANY WARRANTY; without even the implied warranty of
   MERCHANTABILITY or FITNESS FOR A PARTICULAR PURPOSE.  See the
   GNU Lesser General Public License for more details.
   
   Cite this work as:
   * C. Bannwarth, E. Caldeweyher, S. Ehlert, A. Hansen, P. Pracht,
     J. Seibert, S. Spicher, S. Grimme, WIREs Comput. Mol. Sci., 2020, 11,
     e01493. DOI: 10.1002/wcms.1493
   
   for GFN2-xTB:
   * C. Bannwarth, S. Ehlert and S. Grimme., J. Chem. Theory Comput., 2019,
     15, 1652-1671. DOI: 10.1021/acs.jctc.8b01176
   for GFN1-xTB:
   * S. Grimme, C. Bannwarth, P. Shushkov, J. Chem. Theory Comput., 2017,
     13, 1989-2009. DOI: 10.1021/acs.jctc.7b00118
   for GFN0-xTB:
   * P. Pracht, E. Caldeweyher, S. Ehlert, S. Grimme, ChemRxiv, 2019, preprint.
     DOI: 10.26434/chemrxiv.8326202.v1
   for GFN-FF:
   * S. Spicher and S. Grimme, Angew. Chem. Int. Ed., 2020, 59, 15665-15673.
     DOI: 10.1002/anie.202004239
   
   for ALPB and GBSA implicit solvation:
   * S. Ehlert, M. Stahn, S. Spicher, S. Grimme, J. Chem. Theory Comput.,
     2021, 17, 4250-4261. DOI: 10.1021/acs.jctc.1c00471
   
   for ddCOSMO and CPCM-X implicit solvation:
   * M. Stahn, S. Ehlert, S. Grimme, J. Phys. Chem. A,
     2023, XX, XXXX-XXXX. DOI: 10.1021/acs.jpca.3c04382
   
   for DFT-D4:
   * E. Caldeweyher, C. Bannwarth and S. Grimme, J. Chem. Phys., 2017,
     147, 034112. DOI: 10.1063/1.4993215
   * E. Caldeweyher, S. Ehlert, A. Hansen, H. Neugebauer, S. Spicher,
     C. Bannwarth and S. Grimme, J. Chem. Phys., 2019, 150, 154122.
     DOI: 10.1063/1.5090222
   * E. Caldeweyher, J.-M. Mewes, S. Ehlert and S. Grimme, Phys. Chem. Chem. Phys.
     2020, 22, 8499-8512. DOI: 10.1039/D0CP00502A
   
   for sTDA-xTB:
   * S. Grimme and C. Bannwarth, J. Chem. Phys., 2016, 145, 054103.
     DOI: 10.1063/1.4959605
   
   in the mass-spec context:
   * V. Asgeirsson, C. Bauer and S. Grimme, Chem. Sci., 2017, 8, 4879.
     DOI: 10.1039/c7sc00601b
   * J. Koopman and S. Grimme, ACS Omega 2019, 4, 12, 15120-15133.
     DOI: 10.1021/acsomega.9b02011
   
   for metadynamics refer to:
   * S. Grimme, J. Chem. Theory Comput., 2019, 155, 2847-2862
     DOI: 10.1021/acs.jctc.9b00143
   
   for SPH calculations refer to:
   * S. Spicher and S. Grimme, J. Chem. Theory Comput., 2021, 17, 1701-1714
     DOI: 10.1021/acs.jctc.0c01306
   
   for ONIOM refer to:
   * C. Plett, A. Katbashev, S. Ehlert, S. Grimme, M. Bursch,
     Phys. Chem. Chem. Phys., 2023, 25, 17860-17868. DOI: 10.1039/D3CP02178E
   
   for DIPRO refer to:
   * J. Kohn, N. Gildemeister, S. Grimme, D. Fazzi, A. Hansen,
     J. Chem. Phys., 2023, just accepted.
   
   for PTB refer to:
   * S. Grimme, M. Mueller, A. Hansen, J. Chem. Phys., 2023, 158, 124111.
     DOI: 10.1063/5.0137838
   
   with help from (in alphabetical order)
   P. Atkinson, C. Bannwarth, F. Bohle, G. Brandenburg, E. Caldeweyher
   M. Checinski, S. Dohm, S. Ehlert, S. Ehrlich, I. Gerasimov, C. Hölzer
   A. Katbashev, J. Kohn, J. Koopman, C. Lavigne, S. Lehtola, F. März, M. Müller,
   F. Musil, H. Neugebauer, J. Pisarek, C. Plett, P. Pracht, F. Pultar,
   J. Seibert, P. Shushkov, S. Spicher, M. Stahn, M. Steiner, T. Strunk,
   J. Stückrath, T. Rose, and J. Unsleber
   
 * started run on 2025/06/23 at 11:32:40.344     
$$$$$$$$$$$$$$$$$$$$$$$$$$$$$$$$$$$$$$$$$$$$$$$$$$$$$$$$$$$$$$$$$$$$$$$$
 CONSTRAINTS & SCANS: DEBUG SECTION
$$$$$$$$$$$$$$$$$$$$$$$$$$$$$$$$$$$$$$$$$$$$$$$$$$$$$$$$$$$$$$$$$$$$$$$$
   ID    Z sym.   atoms
    1    8 O      1, 3, 7, 8
    2    6 C      2, 4-6
    3    1 H      9-12
$$$$$$$$$$$$$$$$$$$$$$$$$$$$$$$$$$$$$$$$$$$$$$$$$$$$$$$$$$$$$$$$$$$$$$$$

           -------------------------------------------------
          |                Calculation Setup                |
           -------------------------------------------------

          program call               : C:\Users\nkapa\Downloads\xtb-6.7.1pre-windows-x86_64\xtb-6.7.1\bin\xtb.EXE dft_tmp\537.xyz --gfn2 --parallel 8 --verbose --chrg -2
          coordinate file            : dft_tmp\537.xyz
          xtbhome directory          : C:\Users\nkapa\AppData\Roaming\SPB_Data
          path for xtb               : C:\Users\nkapa\Downloads\xtb-6.7.1pre-windows-x86_64\xtb-6.7.1\share\xtb
          xcontrol input file        : dft_tmp\537.xyz
          omp threads                :                     8


           -------------------------------------------------
          |                 G F N 2 - x T B                 |
           -------------------------------------------------

        Reference                      10.1021/acs.jctc.8b01176
      * Hamiltonian:
        H0-scaling (s, p, d)           1.850000    2.230000    2.230000
        zeta-weighting                 0.500000
      * Dispersion:
        s8                             2.700000
        a1                             0.520000
        a2                             5.000000
        s9                             5.000000
      * Repulsion:
        kExp                           1.500000    1.000000
        rExp                           1.000000
      * Coulomb:
        alpha                          2.000000
        third order                    shell-resolved
        anisotropic                    true
        a3                             3.000000
        a5                             4.000000
        cn-shift                       1.200000
        cn-exp                         4.000000
        max-rad                        5.000000


          ...................................................
          :                      SETUP                      :
          :.................................................:
          :  # basis functions                  36          :
          :  # atomic orbitals                  36          :
          :  # shells                           20          :
          :  # electrons                        46          :
          :  max. iterations                   250          :
          :  Hamiltonian                  GFN2-xTB          :
          :  restarted?                      false          :
          :  GBSA solvation                  false          :
          :  PC potential                    false          :
          :  electronic temp.          300.0000000     K    :
          :  accuracy                    1.0000000          :
          :  -> integral cutoff          0.2500000E+02      :
          :  -> integral neglect         0.1000000E-07      :
          :  -> SCF convergence          0.1000000E-05 Eh   :
          :  -> wf. convergence          0.1000000E-03 e    :
          :  Broyden damping             0.4000000          :
          :  net charge                         -2          :
          :  unpaired electrons                  0          :
          ...................................................

 iter      E             dE          RMSdq      gap      omega  full diag
   1    -27.1749706 -0.271750E+02  0.644E+00    4.81       0.0  T
   2    -27.3340807 -0.159110E+00  0.274E+00    3.42       1.0  T
   3    -27.3547878 -0.207071E-01  0.193E+00    4.11       1.0  T
   4    -27.3604794 -0.569158E-02  0.363E-01    3.73       1.0  T
   5    -27.3616164 -0.113705E-02  0.122E-01    3.85       1.0  T
   6    -27.3616231 -0.662955E-05  0.581E-02    3.86       1.0  T
   7    -27.3616267 -0.362993E-05  0.994E-03    3.86       2.9  T
   8    -27.3616271 -0.390910E-06  0.499E-03    3.85       5.8  T
   9    -27.3616273 -0.245088E-06  0.676E-04    3.85      42.7  T
  10    -27.3616273 -0.160009E-08  0.259E-04    3.85     111.6  T

   *** convergence criteria satisfied after 10 iterations ***

         #    Occupation            Energy/Eh            Energy/eV
      -------------------------------------------------------------
         1        2.0000           -0.3554860              -9.6733
       ...           ...                  ...                  ...
        17        2.0000           -0.1409243              -3.8347
        18        2.0000           -0.0732547              -1.9934
        19        2.0000           -0.0675252              -1.8375
        20        2.0000           -0.0673812              -1.8335
        21        2.0000           -0.0607811              -1.6539
        22        2.0000           -0.0486653              -1.3243
        23        2.0000           -0.0433175              -1.1787 (HOMO)
        24                          0.0983402               2.6760 (LUMO)
        25                          0.1171509               3.1878
        26                          0.3938477              10.7171
        27                          0.4008749              10.9084
        28                          0.4112520              11.1907
       ...                                ...                  ...
        36                          0.8149634              22.1763
      -------------------------------------------------------------
                  HL-Gap            0.1416578 Eh            3.8547 eV
             Fermi-level            0.0275113 Eh            0.7486 eV

 SCC (total)                   0 d,  0 h,  0 min,  0.022 sec
 SCC setup                      ...        0 min,  0.000 sec (  0.000%)
 Dispersion                     ...        0 min,  0.001 sec (  4.545%)
 classical contributions        ...        0 min,  0.000 sec (  0.000%)
 integral evaluation            ...        0 min,  0.002 sec (  9.091%)
 iterations                     ...        0 min,  0.017 sec ( 77.272%)
 molecular gradient             ...        0 min,  0.002 sec (  9.091%)
 printout                       ...        0 min,  0.000 sec (  0.000%)

         :::::::::::::::::::::::::::::::::::::::::::::::::::::
         ::                     SUMMARY                     ::
         :::::::::::::::::::::::::::::::::::::::::::::::::::::
         :: total energy             -27.191301737416 Eh    ::
         :: gradient norm              0.221463640636 Eh/a0 ::
         :: HOMO-LUMO gap              3.854703715070 eV    ::
         ::.................................................::
         :: HOMO orbital eigv.        -1.178730404191 eV    ::
         :: LUMO orbital eigv.         2.675973310879 eV    ::
         ::.................................................::
         :: SCC energy               -27.361621206597 Eh    ::
         :: -> isotropic ES            0.543060446314 Eh    ::
         :: -> anisotropic ES          0.001508324776 Eh    ::
         :: -> anisotropic XC         -0.001580309214 Eh    ::
         :: -> dispersion             -0.008947221182 Eh    ::
         :: repulsion energy           0.170319469181 Eh    ::
         :: add. restraining           0.000000000000 Eh    ::
         :: total charge              -2.000000000000 e     ::
         ::.................................................::
         :: atomisation energy         4.062681608615 Eh    ::
         :::::::::::::::::::::::::::::::::::::::::::::::::::::

           -------------------------------------------------
          |                Property Printout                |
           -------------------------------------------------

    * Orbital Energies and Occupations

         #    Occupation            Energy/Eh            Energy/eV
      -------------------------------------------------------------
         1        2.0000           -0.3554860              -9.6733
       ...           ...                  ...                  ...
        11        2.0000           -0.2038380              -5.5467
        12        2.0000           -0.1836488              -4.9973
        13        2.0000           -0.1779544              -4.8424
        14        2.0000           -0.1711455              -4.6571
        15        2.0000           -0.1586322              -4.3166
        16        2.0000           -0.1482296              -4.0335
        17        2.0000           -0.1409243              -3.8347
        18        2.0000           -0.0732547              -1.9934
        19        2.0000           -0.0675252              -1.8375
        20        2.0000           -0.0673812              -1.8335
        21        2.0000           -0.0607811              -1.6539
        22        2.0000           -0.0486653              -1.3243
        23        2.0000           -0.0433175              -1.1787 (HOMO)
        24                          0.0983402               2.6760 (LUMO)
        25                          0.1171509               3.1878
        26                          0.3938477              10.7171
        27                          0.4008749              10.9084
        28                          0.4112520              11.1907
        29                          0.4312252              11.7342
        30                          0.4673367              12.7169
        31                          0.4888854              13.3032
        32                          0.4941399              13.4462
        33                          0.5990110              16.2999
        34                          0.6161610              16.7666
       ...                                ...                  ...
        36                          0.8149634              22.1763
      -------------------------------------------------------------
                  HL-Gap            0.1416578 Eh            3.8547 eV
             Fermi-level            0.0275113 Eh            0.7486 eV

     #   Z          covCN         q      C6AA      α(0)
     1   8 O        0.856    -0.591    25.911     6.825
     2   6 C        2.689     0.326    21.459     7.581
     3   8 O        0.852    -0.691    28.472     7.154
     4   6 C        3.800    -0.044    21.371     6.582
     5   6 C        3.800    -0.044    21.371     6.582
     6   6 C        2.689     0.326    21.459     7.581
     7   8 O        0.856    -0.591    25.911     6.825
     8   8 O        0.852    -0.691    28.472     7.154
     9   1 H        0.921     0.005     2.968     2.694
    10   1 H        0.921    -0.004     3.134     2.768
    11   1 H        0.921     0.005     2.968     2.694
    12   1 H        0.921    -0.004     3.134     2.768

 Mol. C6AA /au·bohr⁶  :       2133.656560
 Mol. C8AA /au·bohr⁸  :      47007.505926
 Mol. α(0) /au        :         67.208673


Wiberg/Mayer (AO) data.
largest (>0.10) Wiberg bond orders for each atom

 ---------------------------------------------------------------------------
     #   Z sym  total        # sym  WBO       # sym  WBO       # sym  WBO
 ---------------------------------------------------------------------------
     1   8 O    1.840 --     2 C    1.551     3 O    0.224
     2   6 C    3.942 --     1 O    1.551     3 O    1.395     4 C    0.969
     3   8 O    1.680 --     2 C    1.395     1 O    0.224
     4   6 C    3.992 --     9 H    0.975    10 H    0.974     5 C    0.973
                             2 C    0.969
     5   6 C    3.992 --    11 H    0.975    12 H    0.974     4 C    0.973
                             6 C    0.969
     6   6 C    3.942 --     7 O    1.551     8 O    1.395     5 C    0.969
     7   8 O    1.840 --     6 C    1.551     8 O    0.224
     8   8 O    1.680 --     6 C    1.395     7 O    0.224
     9   1 H    1.000 --     4 C    0.975
    10   1 H    1.000 --     4 C    0.974
    11   1 H    1.000 --     5 C    0.975
    12   1 H    1.000 --     5 C    0.974
 ---------------------------------------------------------------------------

Topologies differ in total number of bonds
Writing topology from bond orders to xtbtopo.mol

molecular dipole:
                 x           y           z       tot (Debye)
 q only:       -0.025      -0.602      -0.135
   full:       -0.026      -0.625      -0.141       1.630
molecular quadrupole (traceless):
                xx          xy          yy          xz          yz          zz
 q only:      -44.076       2.124      13.814       1.042      -3.927      30.262
  q+dip:      -48.144       2.317      14.196       0.969      -4.706      33.948
   full:      -48.738       2.477      13.596       0.242      -5.098      35.142


           -------------------------------------------------
          | TOTAL ENERGY              -27.191301737416 Eh   |
          | GRADIENT NORM               0.221463640636 Eh/α |
          | HOMO-LUMO GAP               3.854703715070 eV   |
           -------------------------------------------------
########################################################################
[WARNING] Runtime exception occurred
-2- restart_readRestart: Dimension missmatch in restart file.
-1- restart_readRestart: Number of electron missmatch in restart file.
########################################################################

------------------------------------------------------------------------
 unit  open   action     filename
  129 false : read       dft_tmp\537.xyz
  129 false : read       dft_tmp\537.xyz
  129 false : read       dft_tmp\537.xyz
  129 false : read       C:\Users\nkapa\Downloads\xtb-6.7.1pre-windows-x86_64\xtb-6.7.1\share\xtb\param_gfn2-xtb.txt
  129 false : read       xtbrestart
  129 false : replaced   charges
  129 false : replaced   wbo
  129 false : replaced   xtbtopo.mol
  129 false : replaced   xtbrestart

------------------------------------------------------------------------
 * finished run on 2025/06/23 at 11:32:40.411     
------------------------------------------------------------------------
 total:
 * wall-time:     0 d,  0 h,  0 min,  0.066 sec
 *  cpu-time:     0 d,  0 h,  0 min,  0.375 sec
 * ratio c/w:     5.682 speedup
 SCF:
 * wall-time:     0 d,  0 h,  0 min,  0.023 sec
 *  cpu-time:     0 d,  0 h,  0 min,  0.078 sec
 * ratio c/w:     3.397 speedup

normal termination of xtb
