      -----------------------------------------------------------      
     |                   =====================                   |     
     |                           x T B                           |     
     |                   =====================                   |     
     |                         S. Grimme                         |     
     |          Mulliken Center for Theoretical Chemistry        |     
     |                    University of Bonn                     |     
      -----------------------------------------------------------      

   * xtb version 6.7.1pre (5071a88) compiled by 'Marcel@Raven' on 2024-07-23

   xtb is free software: you can redistribute it and/or modify it under
   the terms of the GNU Lesser General Public License as published by
   the Free Software Foundation, either version 3 of the License, or
   (at your option) any later version.
   
   xtb is distributed in the hope that it will be useful,
   but WITHOUT ANY WARRANTY; without even the implied warranty of
   MERCHANTABILITY or FITNESS FOR A PARTICULAR PURPOSE.  See the
   GNU Lesser General Public License for more details.
   
   Cite this work as:
   * C. Bannwarth, E. Caldeweyher, S. Ehlert, A. Hansen, P. Pracht,
     J. Seibert, S. Spicher, S. Grimme, WIREs Comput. Mol. Sci., 2020, 11,
     e01493. DOI: 10.1002/wcms.1493
   
   for GFN2-xTB:
   * C. Bannwarth, S. Ehlert and S. Grimme., J. Chem. Theory Comput., 2019,
     15, 1652-1671. DOI: 10.1021/acs.jctc.8b01176
   for GFN1-xTB:
   * S. Grimme, C. Bannwarth, P. Shushkov, J. Chem. Theory Comput., 2017,
     13, 1989-2009. DOI: 10.1021/acs.jctc.7b00118
   for GFN0-xTB:
   * P. Pracht, E. Caldeweyher, S. Ehlert, S. Grimme, ChemRxiv, 2019, preprint.
     DOI: 10.26434/chemrxiv.8326202.v1
   for GFN-FF:
   * S. Spicher and S. Grimme, Angew. Chem. Int. Ed., 2020, 59, 15665-15673.
     DOI: 10.1002/anie.202004239
   
   for ALPB and GBSA implicit solvation:
   * S. Ehlert, M. Stahn, S. Spicher, S. Grimme, J. Chem. Theory Comput.,
     2021, 17, 4250-4261. DOI: 10.1021/acs.jctc.1c00471
   
   for ddCOSMO and CPCM-X implicit solvation:
   * M. Stahn, S. Ehlert, S. Grimme, J. Phys. Chem. A,
     2023, XX, XXXX-XXXX. DOI: 10.1021/acs.jpca.3c04382
   
   for DFT-D4:
   * E. Caldeweyher, C. Bannwarth and S. Grimme, J. Chem. Phys., 2017,
     147, 034112. DOI: 10.1063/1.4993215
   * E. Caldeweyher, S. Ehlert, A. Hansen, H. Neugebauer, S. Spicher,
     C. Bannwarth and S. Grimme, J. Chem. Phys., 2019, 150, 154122.
     DOI: 10.1063/1.5090222
   * E. Caldeweyher, J.-M. Mewes, S. Ehlert and S. Grimme, Phys. Chem. Chem. Phys.
     2020, 22, 8499-8512. DOI: 10.1039/D0CP00502A
   
   for sTDA-xTB:
   * S. Grimme and C. Bannwarth, J. Chem. Phys., 2016, 145, 054103.
     DOI: 10.1063/1.4959605
   
   in the mass-spec context:
   * V. Asgeirsson, C. Bauer and S. Grimme, Chem. Sci., 2017, 8, 4879.
     DOI: 10.1039/c7sc00601b
   * J. Koopman and S. Grimme, ACS Omega 2019, 4, 12, 15120-15133.
     DOI: 10.1021/acsomega.9b02011
   
   for metadynamics refer to:
   * S. Grimme, J. Chem. Theory Comput., 2019, 155, 2847-2862
     DOI: 10.1021/acs.jctc.9b00143
   
   for SPH calculations refer to:
   * S. Spicher and S. Grimme, J. Chem. Theory Comput., 2021, 17, 1701-1714
     DOI: 10.1021/acs.jctc.0c01306
   
   for ONIOM refer to:
   * C. Plett, A. Katbashev, S. Ehlert, S. Grimme, M. Bursch,
     Phys. Chem. Chem. Phys., 2023, 25, 17860-17868. DOI: 10.1039/D3CP02178E
   
   for DIPRO refer to:
   * J. Kohn, N. Gildemeister, S. Grimme, D. Fazzi, A. Hansen,
     J. Chem. Phys., 2023, just accepted.
   
   for PTB refer to:
   * S. Grimme, M. Mueller, A. Hansen, J. Chem. Phys., 2023, 158, 124111.
     DOI: 10.1063/5.0137838
   
   with help from (in alphabetical order)
   P. Atkinson, C. Bannwarth, F. Bohle, G. Brandenburg, E. Caldeweyher
   M. Checinski, S. Dohm, S. Ehlert, S. Ehrlich, I. Gerasimov, C. Hölzer
   A. Katbashev, J. Kohn, J. Koopman, C. Lavigne, S. Lehtola, F. März, M. Müller,
   F. Musil, H. Neugebauer, J. Pisarek, C. Plett, P. Pracht, F. Pultar,
   J. Seibert, P. Shushkov, S. Spicher, M. Stahn, M. Steiner, T. Strunk,
   J. Stückrath, T. Rose, and J. Unsleber
   
 * started run on 2025/06/23 at 11:32:40.648     
$$$$$$$$$$$$$$$$$$$$$$$$$$$$$$$$$$$$$$$$$$$$$$$$$$$$$$$$$$$$$$$$$$$$$$$$
 CONSTRAINTS & SCANS: DEBUG SECTION
$$$$$$$$$$$$$$$$$$$$$$$$$$$$$$$$$$$$$$$$$$$$$$$$$$$$$$$$$$$$$$$$$$$$$$$$
   ID    Z sym.   atoms
    1    8 O      1, 3, 5, 7, 9, 10
    2    6 C      2, 4, 6, 8
    3    1 H      11-14
$$$$$$$$$$$$$$$$$$$$$$$$$$$$$$$$$$$$$$$$$$$$$$$$$$$$$$$$$$$$$$$$$$$$$$$$

           -------------------------------------------------
          |                Calculation Setup                |
           -------------------------------------------------

          program call               : C:\Users\nkapa\Downloads\xtb-6.7.1pre-windows-x86_64\xtb-6.7.1\bin\xtb.EXE dft_tmp\539.xyz --gfn2 --parallel 8 --verbose --chrg -2
          coordinate file            : dft_tmp\539.xyz
          xtbhome directory          : C:\Users\nkapa\AppData\Roaming\SPB_Data
          path for xtb               : C:\Users\nkapa\Downloads\xtb-6.7.1pre-windows-x86_64\xtb-6.7.1\share\xtb
          xcontrol input file        : dft_tmp\539.xyz
          omp threads                :                     8


           -------------------------------------------------
          |                 G F N 2 - x T B                 |
           -------------------------------------------------

        Reference                      10.1021/acs.jctc.8b01176
      * Hamiltonian:
        H0-scaling (s, p, d)           1.850000    2.230000    2.230000
        zeta-weighting                 0.500000
      * Dispersion:
        s8                             2.700000
        a1                             0.520000
        a2                             5.000000
        s9                             5.000000
      * Repulsion:
        kExp                           1.500000    1.000000
        rExp                           1.000000
      * Coulomb:
        alpha                          2.000000
        third order                    shell-resolved
        anisotropic                    true
        a3                             3.000000
        a5                             4.000000
        cn-shift                       1.200000
        cn-exp                         4.000000
        max-rad                        5.000000


          ...................................................
          :                      SETUP                      :
          :.................................................:
          :  # basis functions                  44          :
          :  # atomic orbitals                  44          :
          :  # shells                           24          :
          :  # electrons                        58          :
          :  max. iterations                   250          :
          :  Hamiltonian                  GFN2-xTB          :
          :  restarted?                      false          :
          :  GBSA solvation                  false          :
          :  PC potential                    false          :
          :  electronic temp.          300.0000000     K    :
          :  accuracy                    1.0000000          :
          :  -> integral cutoff          0.2500000E+02      :
          :  -> integral neglect         0.1000000E-07      :
          :  -> SCF convergence          0.1000000E-05 Eh   :
          :  -> wf. convergence          0.1000000E-03 e    :
          :  Broyden damping             0.4000000          :
          :  net charge                         -2          :
          :  unpaired electrons                  0          :
          ...................................................

 iter      E             dE          RMSdq      gap      omega  full diag
   1    -35.3454972 -0.353455E+02  0.636E+00    4.18       0.0  T
   2    -35.4558832 -0.110386E+00  0.295E+00    3.34       1.0  T
   3    -35.4664647 -0.105815E-01  0.204E+00    3.96       1.0  T
   4    -35.4769387 -0.104740E-01  0.360E-01    3.58       1.0  T
   5    -35.4778543 -0.915606E-03  0.132E-01    3.70       1.0  T
   6    -35.4778808 -0.264573E-04  0.494E-02    3.69       1.0  T
   7    -35.4778923 -0.115120E-04  0.132E-02    3.68       2.0  T
   8    -35.4778925 -0.166017E-06  0.496E-03    3.68       5.4  T
   9    -35.4778926 -0.112190E-06  0.200E-03    3.68      13.4  T
  10    -35.4778926 -0.158972E-07  0.785E-04    3.68      34.0  T
  11    -35.4778926 -0.604947E-08  0.264E-04    3.68     101.4  T

   *** convergence criteria satisfied after 11 iterations ***

         #    Occupation            Energy/Eh            Energy/eV
      -------------------------------------------------------------
         1        2.0000           -0.4227846             -11.5046
       ...           ...                  ...                  ...
        23        2.0000           -0.1430422              -3.8924
        24        2.0000           -0.0769386              -2.0936
        25        2.0000           -0.0732235              -1.9925
        26        2.0000           -0.0731857              -1.9915
        27        2.0000           -0.0651832              -1.7737
        28        2.0000           -0.0542975              -1.4775
        29        2.0000           -0.0482141              -1.3120 (HOMO)
        30                          0.0870070               2.3676 (LUMO)
        31                          0.1072585               2.9187
        32                          0.2749697               7.4823
        33                          0.3370798               9.1724
        34                          0.3853366              10.4855
       ...                                ...                  ...
        44                          0.8054273              21.9168
      -------------------------------------------------------------
                  HL-Gap            0.1352211 Eh            3.6796 eV
             Fermi-level            0.0193965 Eh            0.5278 eV

 SCC (total)                   0 d,  0 h,  0 min,  0.015 sec
 SCC setup                      ...        0 min,  0.000 sec (  0.000%)
 Dispersion                     ...        0 min,  0.000 sec (  0.000%)
 classical contributions        ...        0 min,  0.001 sec (  6.666%)
 integral evaluation            ...        0 min,  0.001 sec (  6.666%)
 iterations                     ...        0 min,  0.011 sec ( 73.335%)
 molecular gradient             ...        0 min,  0.002 sec ( 13.332%)
 printout                       ...        0 min,  0.000 sec (  0.000%)

         :::::::::::::::::::::::::::::::::::::::::::::::::::::
         ::                     SUMMARY                     ::
         :::::::::::::::::::::::::::::::::::::::::::::::::::::
         :: total energy             -35.299867428527 Eh    ::
         :: gradient norm              0.237500137339 Eh/a0 ::
         :: HOMO-LUMO gap              3.679552934762 eV    ::
         ::.................................................::
         :: HOMO orbital eigv.        -1.311972128377 eV    ::
         :: LUMO orbital eigv.         2.367580806385 eV    ::
         ::.................................................::
         :: SCC energy               -35.477862549761 Eh    ::
         :: -> isotropic ES            0.584432257769 Eh    ::
         :: -> anisotropic ES         -0.002335932523 Eh    ::
         :: -> anisotropic XC         -0.008783371045 Eh    ::
         :: -> dispersion             -0.011965017361 Eh    ::
         :: repulsion energy           0.177995121234 Eh    ::
         :: add. restraining           0.000000000000 Eh    ::
         :: total charge              -2.000000000000 e     ::
         ::.................................................::
         :: atomisation energy         4.639661692325 Eh    ::
         :::::::::::::::::::::::::::::::::::::::::::::::::::::

           -------------------------------------------------
          |                Property Printout                |
           -------------------------------------------------

    * Orbital Energies and Occupations

         #    Occupation            Energy/Eh            Energy/eV
      -------------------------------------------------------------
         1        2.0000           -0.4227846             -11.5046
       ...           ...                  ...                  ...
        17        2.0000           -0.1922755              -5.2321
        18        2.0000           -0.1839034              -5.0043
        19        2.0000           -0.1723524              -4.6899
        20        2.0000           -0.1721199              -4.6836
        21        2.0000           -0.1550944              -4.2203
        22        2.0000           -0.1519015              -4.1334
        23        2.0000           -0.1430422              -3.8924
        24        2.0000           -0.0769386              -2.0936
        25        2.0000           -0.0732235              -1.9925
        26        2.0000           -0.0731857              -1.9915
        27        2.0000           -0.0651832              -1.7737
        28        2.0000           -0.0542975              -1.4775
        29        2.0000           -0.0482141              -1.3120 (HOMO)
        30                          0.0870070               2.3676 (LUMO)
        31                          0.1072585               2.9187
        32                          0.2749697               7.4823
        33                          0.3370798               9.1724
        34                          0.3853366              10.4855
        35                          0.3951571              10.7528
        36                          0.4026815              10.9575
        37                          0.4180179              11.3748
        38                          0.4538252              12.3492
        39                          0.4791098              13.0372
        40                          0.4876723              13.2702
       ...                                ...                  ...
        44                          0.8054273              21.9168
      -------------------------------------------------------------
                  HL-Gap            0.1352211 Eh            3.6796 eV
             Fermi-level            0.0193965 Eh            0.5278 eV

     #   Z          covCN         q      C6AA      α(0)
     1   8 O        0.856    -0.578    25.589     6.782
     2   6 C        2.689     0.314    21.661     7.617
     3   8 O        0.852    -0.665    27.783     7.067
     4   6 C        3.727     0.117    18.762     6.184
     5   8 O        1.652    -0.438    21.593     6.273
     6   6 C        3.727     0.115    18.793     6.189
     7   8 O        1.652    -0.444    21.718     6.291
     8   6 C        2.688     0.314    21.671     7.619
     9   8 O        0.856    -0.567    25.334     6.748
    10   8 O        0.852    -0.677    28.098     7.107
    11   1 H        0.920    -0.009     3.228     2.810
    12   1 H        0.801     0.258     0.863     1.459
    13   1 H        0.921     0.002     3.031     2.723
    14   1 H        0.801     0.259     0.859     1.456

 Mol. C6AA /au·bohr⁶  :       2827.411827
 Mol. C8AA /au·bohr⁸  :      62154.113455
 Mol. α(0) /au        :         76.324550


Wiberg/Mayer (AO) data.
largest (>0.10) Wiberg bond orders for each atom

 ---------------------------------------------------------------------------
     #   Z sym  total        # sym  WBO       # sym  WBO       # sym  WBO
 ---------------------------------------------------------------------------
     1   8 O    1.852 --     2 C    1.555     3 O    0.233
     2   6 C    3.946 --     1 O    1.555     3 O    1.408     4 C    0.941
     3   8 O    1.704 --     2 C    1.408     1 O    0.233
     4   6 C    3.936 --     5 O    0.973    11 H    0.960     6 C    0.950
                             2 C    0.941
     5   8 O    1.958 --     4 C    0.973    12 H    0.919
     6   6 C    3.934 --     7 O    0.970    13 H    0.962     4 C    0.950
                             8 C    0.940
     7   8 O    1.955 --     6 C    0.970    14 H    0.919
     8   6 C    3.946 --     9 O    1.564    10 O    1.400     6 C    0.940
     9   8 O    1.863 --     8 C    1.564    10 O    0.234
    10   8 O    1.695 --     8 C    1.400     9 O    0.234
    11   1 H    1.000 --     4 C    0.960
    12   1 H    0.933 --     5 O    0.919
    13   1 H    1.000 --     6 C    0.962
    14   1 H    0.933 --     7 O    0.919
 ---------------------------------------------------------------------------

Topologies differ in total number of bonds
Writing topology from bond orders to xtbtopo.mol

molecular dipole:
                 x           y           z       tot (Debye)
 q only:       -0.052       0.100       0.607
   full:       -0.048       0.105       0.637       1.645
molecular quadrupole (traceless):
                xx          xy          yy          xz          yz          zz
 q only:      -41.333      13.416      30.298      -1.198      -6.684      11.035
  q+dip:      -44.008      16.390      33.403      -1.286     -10.565      10.606
   full:      -45.079      17.378      35.286      -1.833     -10.153       9.794


           -------------------------------------------------
          | TOTAL ENERGY              -35.299867428527 Eh   |
          | GRADIENT NORM               0.237500137339 Eh/α |
          | HOMO-LUMO GAP               3.679552934762 eV   |
           -------------------------------------------------
########################################################################
[WARNING] Runtime exception occurred
-2- restart_readRestart: Dimension missmatch in restart file.
-1- restart_readRestart: Number of electron missmatch in restart file.
########################################################################

------------------------------------------------------------------------
 unit  open   action     filename
  129 false : read       dft_tmp\539.xyz
  129 false : read       dft_tmp\539.xyz
  129 false : read       dft_tmp\539.xyz
  129 false : read       C:\Users\nkapa\Downloads\xtb-6.7.1pre-windows-x86_64\xtb-6.7.1\share\xtb\param_gfn2-xtb.txt
  129 false : read       xtbrestart
  129 false : replaced   charges
  129 false : replaced   wbo
  129 false : replaced   xtbtopo.mol
  129 false : replaced   xtbrestart

------------------------------------------------------------------------
 * finished run on 2025/06/23 at 11:32:40.703     
------------------------------------------------------------------------
 total:
 * wall-time:     0 d,  0 h,  0 min,  0.054 sec
 *  cpu-time:     0 d,  0 h,  0 min,  0.250 sec
 * ratio c/w:     4.630 speedup
 SCF:
 * wall-time:     0 d,  0 h,  0 min,  0.015 sec
 *  cpu-time:     0 d,  0 h,  0 min,  0.125 sec
 * ratio c/w:     8.333 speedup

normal termination of xtb
