23

C -2.239268 1.224114 0.537127
C -1.919290 -0.000414 -0.337530
C -0.420406 -0.080989 -0.748607
C 0.549791 -0.461729 0.413022
C 2.037031 -0.155774 0.098368
C 2.281776 1.330451 0.022151
O 2.476863 1.882282 -1.049738
O 2.429913 -0.787420 -1.094564
O 0.392623 -1.808612 0.791871
O -0.255516 -0.943560 -1.848686
O -2.362005 -1.191995 0.265700
H -1.916241 2.156966 0.028110
H -1.739887 1.161251 1.525462
H -3.335353 1.282248 0.706531
H -2.504843 0.128904 -1.274249
H -0.142552 0.934123 -1.104551
H 0.286462 0.149455 1.301490
H 2.648014 -0.550648 0.943341
H 2.250512 1.925073 0.929355
H 3.422735 -0.812168 -1.093558
H 0.796937 -2.378419 0.087490
H -0.681282 -1.811545 -1.625270
H -2.056014 -1.191594 1.209659
