      -----------------------------------------------------------      
     |                   =====================                   |     
     |                           x T B                           |     
     |                   =====================                   |     
     |                         S. Grimme                         |     
     |          Mulliken Center for Theoretical Chemistry        |     
     |                    University of Bonn                     |     
      -----------------------------------------------------------      

   * xtb version 6.7.1pre (5071a88) compiled by 'Marcel@Raven' on 2024-07-23

   xtb is free software: you can redistribute it and/or modify it under
   the terms of the GNU Lesser General Public License as published by
   the Free Software Foundation, either version 3 of the License, or
   (at your option) any later version.
   
   xtb is distributed in the hope that it will be useful,
   but WITHOUT ANY WARRANTY; without even the implied warranty of
   MERCHANTABILITY or FITNESS FOR A PARTICULAR PURPOSE.  See the
   GNU Lesser General Public License for more details.
   
   Cite this work as:
   * C. Bannwarth, E. Caldeweyher, S. Ehlert, A. Hansen, P. Pracht,
     J. Seibert, S. Spicher, S. Grimme, WIREs Comput. Mol. Sci., 2020, 11,
     e01493. DOI: 10.1002/wcms.1493
   
   for GFN2-xTB:
   * C. Bannwarth, S. Ehlert and S. Grimme., J. Chem. Theory Comput., 2019,
     15, 1652-1671. DOI: 10.1021/acs.jctc.8b01176
   for GFN1-xTB:
   * S. Grimme, C. Bannwarth, P. Shushkov, J. Chem. Theory Comput., 2017,
     13, 1989-2009. DOI: 10.1021/acs.jctc.7b00118
   for GFN0-xTB:
   * P. Pracht, E. Caldeweyher, S. Ehlert, S. Grimme, ChemRxiv, 2019, preprint.
     DOI: 10.26434/chemrxiv.8326202.v1
   for GFN-FF:
   * S. Spicher and S. Grimme, Angew. Chem. Int. Ed., 2020, 59, 15665-15673.
     DOI: 10.1002/anie.202004239
   
   for ALPB and GBSA implicit solvation:
   * S. Ehlert, M. Stahn, S. Spicher, S. Grimme, J. Chem. Theory Comput.,
     2021, 17, 4250-4261. DOI: 10.1021/acs.jctc.1c00471
   
   for ddCOSMO and CPCM-X implicit solvation:
   * M. Stahn, S. Ehlert, S. Grimme, J. Phys. Chem. A,
     2023, XX, XXXX-XXXX. DOI: 10.1021/acs.jpca.3c04382
   
   for DFT-D4:
   * E. Caldeweyher, C. Bannwarth and S. Grimme, J. Chem. Phys., 2017,
     147, 034112. DOI: 10.1063/1.4993215
   * E. Caldeweyher, S. Ehlert, A. Hansen, H. Neugebauer, S. Spicher,
     C. Bannwarth and S. Grimme, J. Chem. Phys., 2019, 150, 154122.
     DOI: 10.1063/1.5090222
   * E. Caldeweyher, J.-M. Mewes, S. Ehlert and S. Grimme, Phys. Chem. Chem. Phys.
     2020, 22, 8499-8512. DOI: 10.1039/D0CP00502A
   
   for sTDA-xTB:
   * S. Grimme and C. Bannwarth, J. Chem. Phys., 2016, 145, 054103.
     DOI: 10.1063/1.4959605
   
   in the mass-spec context:
   * V. Asgeirsson, C. Bauer and S. Grimme, Chem. Sci., 2017, 8, 4879.
     DOI: 10.1039/c7sc00601b
   * J. Koopman and S. Grimme, ACS Omega 2019, 4, 12, 15120-15133.
     DOI: 10.1021/acsomega.9b02011
   
   for metadynamics refer to:
   * S. Grimme, J. Chem. Theory Comput., 2019, 155, 2847-2862
     DOI: 10.1021/acs.jctc.9b00143
   
   for SPH calculations refer to:
   * S. Spicher and S. Grimme, J. Chem. Theory Comput., 2021, 17, 1701-1714
     DOI: 10.1021/acs.jctc.0c01306
   
   for ONIOM refer to:
   * C. Plett, A. Katbashev, S. Ehlert, S. Grimme, M. Bursch,
     Phys. Chem. Chem. Phys., 2023, 25, 17860-17868. DOI: 10.1039/D3CP02178E
   
   for DIPRO refer to:
   * J. Kohn, N. Gildemeister, S. Grimme, D. Fazzi, A. Hansen,
     J. Chem. Phys., 2023, just accepted.
   
   for PTB refer to:
   * S. Grimme, M. Mueller, A. Hansen, J. Chem. Phys., 2023, 158, 124111.
     DOI: 10.1063/5.0137838
   
   with help from (in alphabetical order)
   P. Atkinson, C. Bannwarth, F. Bohle, G. Brandenburg, E. Caldeweyher
   M. Checinski, S. Dohm, S. Ehlert, S. Ehrlich, I. Gerasimov, C. Hölzer
   A. Katbashev, J. Kohn, J. Koopman, C. Lavigne, S. Lehtola, F. März, M. Müller,
   F. Musil, H. Neugebauer, J. Pisarek, C. Plett, P. Pracht, F. Pultar,
   J. Seibert, P. Shushkov, S. Spicher, M. Stahn, M. Steiner, T. Strunk,
   J. Stückrath, T. Rose, and J. Unsleber
   
 * started run on 2025/06/23 at 11:32:42.129     
$$$$$$$$$$$$$$$$$$$$$$$$$$$$$$$$$$$$$$$$$$$$$$$$$$$$$$$$$$$$$$$$$$$$$$$$
 CONSTRAINTS & SCANS: DEBUG SECTION
$$$$$$$$$$$$$$$$$$$$$$$$$$$$$$$$$$$$$$$$$$$$$$$$$$$$$$$$$$$$$$$$$$$$$$$$
   ID    Z sym.   atoms
    1    6 C      1-3, 6, 8
    2    8 O      4, 7
    3    7 N      5
    4    1 H      9-15
$$$$$$$$$$$$$$$$$$$$$$$$$$$$$$$$$$$$$$$$$$$$$$$$$$$$$$$$$$$$$$$$$$$$$$$$

           -------------------------------------------------
          |                Calculation Setup                |
           -------------------------------------------------

          program call               : C:\Users\nkapa\Downloads\xtb-6.7.1pre-windows-x86_64\xtb-6.7.1\bin\xtb.EXE dft_tmp\551.xyz --gfn2 --parallel 8 --verbose
          coordinate file            : dft_tmp\551.xyz
          xtbhome directory          : C:\Users\nkapa\AppData\Roaming\SPB_Data
          path for xtb               : C:\Users\nkapa\Downloads\xtb-6.7.1pre-windows-x86_64\xtb-6.7.1\share\xtb
          xcontrol input file        : dft_tmp\551.xyz
          omp threads                :                     8


           -------------------------------------------------
          |                 G F N 2 - x T B                 |
           -------------------------------------------------

        Reference                      10.1021/acs.jctc.8b01176
      * Hamiltonian:
        H0-scaling (s, p, d)           1.850000    2.230000    2.230000
        zeta-weighting                 0.500000
      * Dispersion:
        s8                             2.700000
        a1                             0.520000
        a2                             5.000000
        s9                             5.000000
      * Repulsion:
        kExp                           1.500000    1.000000
        rExp                           1.000000
      * Coulomb:
        alpha                          2.000000
        third order                    shell-resolved
        anisotropic                    true
        a3                             3.000000
        a5                             4.000000
        cn-shift                       1.200000
        cn-exp                         4.000000
        max-rad                        5.000000


          ...................................................
          :                      SETUP                      :
          :.................................................:
          :  # basis functions                  39          :
          :  # atomic orbitals                  39          :
          :  # shells                           23          :
          :  # electrons                        44          :
          :  max. iterations                   250          :
          :  Hamiltonian                  GFN2-xTB          :
          :  restarted?                      false          :
          :  GBSA solvation                  false          :
          :  PC potential                    false          :
          :  electronic temp.          300.0000000     K    :
          :  accuracy                    1.0000000          :
          :  -> integral cutoff          0.2500000E+02      :
          :  -> integral neglect         0.1000000E-07      :
          :  -> SCF convergence          0.1000000E-05 Eh   :
          :  -> wf. convergence          0.1000000E-03 e    :
          :  Broyden damping             0.4000000          :
          :  net charge                          0          :
          :  unpaired electrons                  0          :
          ...................................................

 iter      E             dE          RMSdq      gap      omega  full diag
   1    -25.4811404 -0.254811E+02  0.491E+00    3.95       0.0  T
   2    -25.5605477 -0.794073E-01  0.249E+00    3.32       1.0  T
   3    -25.5712046 -0.106569E-01  0.168E+00    3.85       1.0  T
   4    -25.5765498 -0.534522E-02  0.309E-01    3.54       1.0  T
   5    -25.5777538 -0.120402E-02  0.892E-02    3.62       1.0  T
   6    -25.5777509  0.292857E-05  0.370E-02    3.63       1.0  T
   7    -25.5777596 -0.869909E-05  0.903E-03    3.62       2.9  T
   8    -25.5777596 -0.343315E-07  0.427E-03    3.62       6.0  T
   9    -25.5777597 -0.966322E-07  0.199E-03    3.62      13.0  T
  10    -25.5777598 -0.384498E-07  0.273E-04    3.62      94.6  T
  11    -25.5777598  0.705747E-10  0.153E-04    3.62     168.7  T

   *** convergence criteria satisfied after 11 iterations ***

         #    Occupation            Energy/Eh            Energy/eV
      -------------------------------------------------------------
         1        2.0000           -0.7188838             -19.5618
       ...           ...                  ...                  ...
        16        2.0000           -0.4953487             -13.4791
        17        2.0000           -0.4950192             -13.4702
        18        2.0000           -0.4743619             -12.9080
        19        2.0000           -0.4706295             -12.8065
        20        2.0000           -0.4472550             -12.1704
        21        2.0000           -0.4270370             -11.6203
        22        2.0000           -0.4222950             -11.4912 (HOMO)
        23                         -0.2891237              -7.8675 (LUMO)
        24                         -0.2361206              -6.4252
        25                         -0.0674261              -1.8348
        26                          0.0392857               1.0690
        27                          0.0556957               1.5156
       ...                                ...                  ...
        39                          0.4713332              12.8256
      -------------------------------------------------------------
                  HL-Gap            0.1331713 Eh            3.6238 eV
             Fermi-level           -0.3557093 Eh           -9.6793 eV

 SCC (total)                   0 d,  0 h,  0 min,  0.016 sec
 SCC setup                      ...        0 min,  0.000 sec (  0.000%)
 Dispersion                     ...        0 min,  0.001 sec (  6.250%)
 classical contributions        ...        0 min,  0.000 sec (  0.000%)
 integral evaluation            ...        0 min,  0.001 sec (  6.251%)
 iterations                     ...        0 min,  0.010 sec ( 62.500%)
 molecular gradient             ...        0 min,  0.004 sec ( 25.000%)
 printout                       ...        0 min,  0.000 sec (  0.000%)

         :::::::::::::::::::::::::::::::::::::::::::::::::::::
         ::                     SUMMARY                     ::
         :::::::::::::::::::::::::::::::::::::::::::::::::::::
         :: total energy             -25.344691681540 Eh    ::
         :: gradient norm              0.153278826250 Eh/a0 ::
         :: HOMO-LUMO gap              3.623774224319 eV    ::
         ::.................................................::
         :: HOMO orbital eigv.       -11.491230948307 eV    ::
         :: LUMO orbital eigv.        -7.867456723988 eV    ::
         ::.................................................::
         :: SCC energy               -25.577734600284 Eh    ::
         :: -> isotropic ES            0.066417361162 Eh    ::
         :: -> anisotropic ES          0.000563936504 Eh    ::
         :: -> anisotropic XC          0.007889915637 Eh    ::
         :: -> dispersion             -0.010178434173 Eh    ::
         :: repulsion energy           0.233042918745 Eh    ::
         :: add. restraining           0.000000000000 Eh    ::
         :: total charge               0.000000000000 e     ::
         ::.................................................::
         :: atomisation energy         4.413652983824 Eh    ::
         :::::::::::::::::::::::::::::::::::::::::::::::::::::

           -------------------------------------------------
          |                Property Printout                |
           -------------------------------------------------

    * Orbital Energies and Occupations

         #    Occupation            Energy/Eh            Energy/eV
      -------------------------------------------------------------
         1        2.0000           -0.7188838             -19.5618
       ...           ...                  ...                  ...
        10        2.0000           -0.5705710             -15.5260
        11        2.0000           -0.5568807             -15.1535
        12        2.0000           -0.5469476             -14.8832
        13        2.0000           -0.5376401             -14.6299
        14        2.0000           -0.5292045             -14.4004
        15        2.0000           -0.5211210             -14.1804
        16        2.0000           -0.4953487             -13.4791
        17        2.0000           -0.4950192             -13.4702
        18        2.0000           -0.4743619             -12.9080
        19        2.0000           -0.4706295             -12.8065
        20        2.0000           -0.4472550             -12.1704
        21        2.0000           -0.4270370             -11.6203
        22        2.0000           -0.4222950             -11.4912 (HOMO)
        23                         -0.2891237              -7.8675 (LUMO)
        24                         -0.2361206              -6.4252
        25                         -0.0674261              -1.8348
        26                          0.0392857               1.0690
        27                          0.0556957               1.5156
        28                          0.0656177               1.7855
        29                          0.0736095               2.0030
        30                          0.0867747               2.3613
        31                          0.1137623               3.0956
        32                          0.1382483               3.7619
        33                          0.1503991               4.0926
       ...                                ...                  ...
        39                          0.4713332              12.8256
      -------------------------------------------------------------
                  HL-Gap            0.1331713 Eh            3.6238 eV
             Fermi-level           -0.3557093 Eh           -9.6793 eV

     #   Z          covCN         q      C6AA      α(0)
     1   6 C        3.799    -0.060    21.660     6.626
     2   6 C        3.797    -0.080    22.034     6.684
     3   6 C        2.749     0.273    22.379     7.746
     4   8 O        0.856    -0.398    21.645     6.238
     5   7 N        2.676    -0.165    24.577     7.363
     6   6 C        2.749     0.273    22.379     7.746
     7   8 O        0.856    -0.398    21.645     6.238
     8   6 C        3.797    -0.080    22.034     6.684
     9   1 H        0.921     0.050     2.315     2.379
    10   1 H        0.921     0.048     2.350     2.397
    11   1 H        0.921     0.078     1.997     2.210
    12   1 H        0.921     0.083     1.947     2.182
    13   1 H        0.858     0.215     1.035     1.594
    14   1 H        0.921     0.083     1.947     2.182
    15   1 H        0.921     0.078     1.997     2.210

 Mol. C6AA /au·bohr⁶  :       2240.155927
 Mol. C8AA /au·bohr⁸  :      50455.614231
 Mol. α(0) /au        :         70.479995


Wiberg/Mayer (AO) data.
largest (>0.10) Wiberg bond orders for each atom

 ---------------------------------------------------------------------------
     #   Z sym  total        # sym  WBO       # sym  WBO       # sym  WBO
 ---------------------------------------------------------------------------
     1   6 C    3.995 --     2 C    1.004     8 C    1.004    10 H    0.977
                             9 H    0.976
     2   6 C    3.993 --     1 C    1.004     3 C    1.003    12 H    0.961
                            11 H    0.942
     3   6 C    3.937 --     4 O    1.746     5 N    1.129     2 C    1.003
     4   8 O    2.027 --     3 C    1.746     5 N    0.136
     5   7 N    3.510 --     3 C    1.129     6 C    1.129    13 H    0.920
                             4 O    0.136     7 O    0.136
     6   6 C    3.937 --     7 O    1.746     5 N    1.129     8 C    1.003
     7   8 O    2.027 --     6 C    1.746     5 N    0.136
     8   6 C    3.993 --     1 C    1.004     6 C    1.003    14 H    0.961
                            15 H    0.942
     9   1 H    0.997 --     1 C    0.976
    10   1 H    0.998 --     1 C    0.977
    11   1 H    0.994 --     2 C    0.942
    12   1 H    0.993 --     2 C    0.961
    13   1 H    0.954 --     5 N    0.920
    14   1 H    0.993 --     8 C    0.961
    15   1 H    0.994 --     8 C    0.942
 ---------------------------------------------------------------------------

Topologies differ in total number of bonds
Writing topology from bond orders to xtbtopo.mol

molecular dipole:
                 x           y           z       tot (Debye)
 q only:       -1.382       0.029       0.126
   full:       -1.426       0.029       0.148       3.646
molecular quadrupole (traceless):
                xx          xy          yy          xz          yz          zz
 q only:        4.319      -0.378     -10.246      -0.210      -0.999       5.927
  q+dip:        5.934      -0.488     -14.000      -0.756      -1.351       8.066
   full:        5.089      -0.496     -14.276      -0.381      -1.447       9.186


           -------------------------------------------------
          | TOTAL ENERGY              -25.344691681540 Eh   |
          | GRADIENT NORM               0.153278826250 Eh/α |
          | HOMO-LUMO GAP               3.623774224319 eV   |
           -------------------------------------------------
########################################################################
[WARNING] Runtime exception occurred
-2- restart_readRestart: Dimension missmatch in restart file.
-1- restart_readRestart: Number of electron missmatch in restart file.
########################################################################

------------------------------------------------------------------------
 unit  open   action     filename
  129 false : read       dft_tmp\551.xyz
  129 false : read       dft_tmp\551.xyz
  129 false : read       dft_tmp\551.xyz
  129 false : read       C:\Users\nkapa\Downloads\xtb-6.7.1pre-windows-x86_64\xtb-6.7.1\share\xtb\param_gfn2-xtb.txt
  129 false : read       xtbrestart
  129 false : replaced   charges
  129 false : replaced   wbo
  129 false : replaced   xtbtopo.mol
  129 false : replaced   xtbrestart

------------------------------------------------------------------------
 * finished run on 2025/06/23 at 11:32:42.186     
------------------------------------------------------------------------
 total:
 * wall-time:     0 d,  0 h,  0 min,  0.056 sec
 *  cpu-time:     0 d,  0 h,  0 min,  0.344 sec
 * ratio c/w:     6.138 speedup
 SCF:
 * wall-time:     0 d,  0 h,  0 min,  0.017 sec
 *  cpu-time:     0 d,  0 h,  0 min,  0.125 sec
 * ratio c/w:     7.353 speedup

normal termination of xtb
