      -----------------------------------------------------------      
     |                   =====================                   |     
     |                           x T B                           |     
     |                   =====================                   |     
     |                         S. Grimme                         |     
     |          Mulliken Center for Theoretical Chemistry        |     
     |                    University of Bonn                     |     
      -----------------------------------------------------------      

   * xtb version 6.7.1pre (5071a88) compiled by 'Marcel@Raven' on 2024-07-23

   xtb is free software: you can redistribute it and/or modify it under
   the terms of the GNU Lesser General Public License as published by
   the Free Software Foundation, either version 3 of the License, or
   (at your option) any later version.
   
   xtb is distributed in the hope that it will be useful,
   but WITHOUT ANY WARRANTY; without even the implied warranty of
   MERCHANTABILITY or FITNESS FOR A PARTICULAR PURPOSE.  See the
   GNU Lesser General Public License for more details.
   
   Cite this work as:
   * C. Bannwarth, E. Caldeweyher, S. Ehlert, A. Hansen, P. Pracht,
     J. Seibert, S. Spicher, S. Grimme, WIREs Comput. Mol. Sci., 2020, 11,
     e01493. DOI: 10.1002/wcms.1493
   
   for GFN2-xTB:
   * C. Bannwarth, S. Ehlert and S. Grimme., J. Chem. Theory Comput., 2019,
     15, 1652-1671. DOI: 10.1021/acs.jctc.8b01176
   for GFN1-xTB:
   * S. Grimme, C. Bannwarth, P. Shushkov, J. Chem. Theory Comput., 2017,
     13, 1989-2009. DOI: 10.1021/acs.jctc.7b00118
   for GFN0-xTB:
   * P. Pracht, E. Caldeweyher, S. Ehlert, S. Grimme, ChemRxiv, 2019, preprint.
     DOI: 10.26434/chemrxiv.8326202.v1
   for GFN-FF:
   * S. Spicher and S. Grimme, Angew. Chem. Int. Ed., 2020, 59, 15665-15673.
     DOI: 10.1002/anie.202004239
   
   for ALPB and GBSA implicit solvation:
   * S. Ehlert, M. Stahn, S. Spicher, S. Grimme, J. Chem. Theory Comput.,
     2021, 17, 4250-4261. DOI: 10.1021/acs.jctc.1c00471
   
   for ddCOSMO and CPCM-X implicit solvation:
   * M. Stahn, S. Ehlert, S. Grimme, J. Phys. Chem. A,
     2023, XX, XXXX-XXXX. DOI: 10.1021/acs.jpca.3c04382
   
   for DFT-D4:
   * E. Caldeweyher, C. Bannwarth and S. Grimme, J. Chem. Phys., 2017,
     147, 034112. DOI: 10.1063/1.4993215
   * E. Caldeweyher, S. Ehlert, A. Hansen, H. Neugebauer, S. Spicher,
     C. Bannwarth and S. Grimme, J. Chem. Phys., 2019, 150, 154122.
     DOI: 10.1063/1.5090222
   * E. Caldeweyher, J.-M. Mewes, S. Ehlert and S. Grimme, Phys. Chem. Chem. Phys.
     2020, 22, 8499-8512. DOI: 10.1039/D0CP00502A
   
   for sTDA-xTB:
   * S. Grimme and C. Bannwarth, J. Chem. Phys., 2016, 145, 054103.
     DOI: 10.1063/1.4959605
   
   in the mass-spec context:
   * V. Asgeirsson, C. Bauer and S. Grimme, Chem. Sci., 2017, 8, 4879.
     DOI: 10.1039/c7sc00601b
   * J. Koopman and S. Grimme, ACS Omega 2019, 4, 12, 15120-15133.
     DOI: 10.1021/acsomega.9b02011
   
   for metadynamics refer to:
   * S. Grimme, J. Chem. Theory Comput., 2019, 155, 2847-2862
     DOI: 10.1021/acs.jctc.9b00143
   
   for SPH calculations refer to:
   * S. Spicher and S. Grimme, J. Chem. Theory Comput., 2021, 17, 1701-1714
     DOI: 10.1021/acs.jctc.0c01306
   
   for ONIOM refer to:
   * C. Plett, A. Katbashev, S. Ehlert, S. Grimme, M. Bursch,
     Phys. Chem. Chem. Phys., 2023, 25, 17860-17868. DOI: 10.1039/D3CP02178E
   
   for DIPRO refer to:
   * J. Kohn, N. Gildemeister, S. Grimme, D. Fazzi, A. Hansen,
     J. Chem. Phys., 2023, just accepted.
   
   for PTB refer to:
   * S. Grimme, M. Mueller, A. Hansen, J. Chem. Phys., 2023, 158, 124111.
     DOI: 10.1063/5.0137838
   
   with help from (in alphabetical order)
   P. Atkinson, C. Bannwarth, F. Bohle, G. Brandenburg, E. Caldeweyher
   M. Checinski, S. Dohm, S. Ehlert, S. Ehrlich, I. Gerasimov, C. Hölzer
   A. Katbashev, J. Kohn, J. Koopman, C. Lavigne, S. Lehtola, F. März, M. Müller,
   F. Musil, H. Neugebauer, J. Pisarek, C. Plett, P. Pracht, F. Pultar,
   J. Seibert, P. Shushkov, S. Spicher, M. Stahn, M. Steiner, T. Strunk,
   J. Stückrath, T. Rose, and J. Unsleber
   
 * started run on 2025/06/23 at 11:32:42.737     
$$$$$$$$$$$$$$$$$$$$$$$$$$$$$$$$$$$$$$$$$$$$$$$$$$$$$$$$$$$$$$$$$$$$$$$$
 CONSTRAINTS & SCANS: DEBUG SECTION
$$$$$$$$$$$$$$$$$$$$$$$$$$$$$$$$$$$$$$$$$$$$$$$$$$$$$$$$$$$$$$$$$$$$$$$$
   ID    Z sym.   atoms
    1    6 C      1-3, 5, 7
    2    7 N      4
    3    8 O      6
    4    1 H      8-16
$$$$$$$$$$$$$$$$$$$$$$$$$$$$$$$$$$$$$$$$$$$$$$$$$$$$$$$$$$$$$$$$$$$$$$$$

           -------------------------------------------------
          |                Calculation Setup                |
           -------------------------------------------------

          program call               : C:\Users\nkapa\Downloads\xtb-6.7.1pre-windows-x86_64\xtb-6.7.1\bin\xtb.EXE dft_tmp\556.xyz --gfn2 --parallel 8 --verbose
          coordinate file            : dft_tmp\556.xyz
          xtbhome directory          : C:\Users\nkapa\AppData\Roaming\SPB_Data
          path for xtb               : C:\Users\nkapa\Downloads\xtb-6.7.1pre-windows-x86_64\xtb-6.7.1\share\xtb
          xcontrol input file        : dft_tmp\556.xyz
          omp threads                :                     8


           -------------------------------------------------
          |                 G F N 2 - x T B                 |
           -------------------------------------------------

        Reference                      10.1021/acs.jctc.8b01176
      * Hamiltonian:
        H0-scaling (s, p, d)           1.850000    2.230000    2.230000
        zeta-weighting                 0.500000
      * Dispersion:
        s8                             2.700000
        a1                             0.520000
        a2                             5.000000
        s9                             5.000000
      * Repulsion:
        kExp                           1.500000    1.000000
        rExp                           1.000000
      * Coulomb:
        alpha                          2.000000
        third order                    shell-resolved
        anisotropic                    true
        a3                             3.000000
        a5                             4.000000
        cn-shift                       1.200000
        cn-exp                         4.000000
        max-rad                        5.000000


          ...................................................
          :                      SETUP                      :
          :.................................................:
          :  # basis functions                  37          :
          :  # atomic orbitals                  37          :
          :  # shells                           23          :
          :  # electrons                        40          :
          :  max. iterations                   250          :
          :  Hamiltonian                  GFN2-xTB          :
          :  restarted?                      false          :
          :  GBSA solvation                  false          :
          :  PC potential                    false          :
          :  electronic temp.          300.0000000     K    :
          :  accuracy                    1.0000000          :
          :  -> integral cutoff          0.2500000E+02      :
          :  -> integral neglect         0.1000000E-07      :
          :  -> SCF convergence          0.1000000E-05 Eh   :
          :  -> wf. convergence          0.1000000E-03 e    :
          :  Broyden damping             0.4000000          :
          :  net charge                          0          :
          :  unpaired electrons                  0          :
          ...................................................

 iter      E             dE          RMSdq      gap      omega  full diag
   1    -22.4550855 -0.224551E+02  0.384E+00    4.29       0.0  T
   2    -22.5194037 -0.643182E-01  0.211E+00    4.16       1.0  T
   3    -22.5240531 -0.464946E-02  0.123E+00    4.54       1.0  T
   4    -22.5247642 -0.711102E-03  0.241E-01    4.32       1.0  T
   5    -22.5255169 -0.752646E-03  0.900E-02    4.42       1.0  T
   6    -22.5255286 -0.117095E-04  0.411E-02    4.42       1.0  T
   7    -22.5255304 -0.181111E-05  0.924E-03    4.41       2.7  T
   8    -22.5255306 -0.225325E-06  0.399E-03    4.41       6.3  T
   9    -22.5255307 -0.322253E-07  0.150E-03    4.41      16.7  T
  10    -22.5255307 -0.904237E-08  0.352E-04    4.41      70.9  T
  11    -22.5255307 -0.625448E-09  0.112E-04    4.41     223.6  T

   *** convergence criteria satisfied after 11 iterations ***

         #    Occupation            Energy/Eh            Energy/eV
      -------------------------------------------------------------
         1        2.0000           -0.6790874             -18.4789
       ...           ...                  ...                  ...
        14        2.0000           -0.4901388             -13.3374
        15        2.0000           -0.4643379             -12.6353
        16        2.0000           -0.4535506             -12.3417
        17        2.0000           -0.4497056             -12.2371
        18        2.0000           -0.4467487             -12.1567
        19        2.0000           -0.3935714             -10.7096
        20        2.0000           -0.3878603             -10.5542 (HOMO)
        21                         -0.2256889              -6.1413 (LUMO)
        22                         -0.0447514              -1.2177
        23                          0.0641950               1.7468
        24                          0.0675307               1.8376
        25                          0.0743602               2.0234
       ...                                ...                  ...
        37                          0.4866427              13.2422
      -------------------------------------------------------------
                  HL-Gap            0.1621714 Eh            4.4129 eV
             Fermi-level           -0.3067746 Eh           -8.3478 eV

 SCC (total)                   0 d,  0 h,  0 min,  0.012 sec
 SCC setup                      ...        0 min,  0.000 sec (  0.000%)
 Dispersion                     ...        0 min,  0.001 sec (  8.333%)
 classical contributions        ...        0 min,  0.000 sec (  0.000%)
 integral evaluation            ...        0 min,  0.000 sec (  0.000%)
 iterations                     ...        0 min,  0.009 sec ( 75.000%)
 molecular gradient             ...        0 min,  0.002 sec ( 16.667%)
 printout                       ...        0 min,  0.000 sec (  0.000%)

         :::::::::::::::::::::::::::::::::::::::::::::::::::::
         ::                     SUMMARY                     ::
         :::::::::::::::::::::::::::::::::::::::::::::::::::::
         :: total energy             -22.293916600040 Eh    ::
         :: gradient norm              0.109791682755 Eh/a0 ::
         :: HOMO-LUMO gap              4.412908936021 eV    ::
         ::.................................................::
         :: HOMO orbital eigv.       -10.554215803621 eV    ::
         :: LUMO orbital eigv.        -6.141306867600 eV    ::
         ::.................................................::
         :: SCC energy               -22.525505041791 Eh    ::
         :: -> isotropic ES            0.042021921343 Eh    ::
         :: -> anisotropic ES          0.003542196463 Eh    ::
         :: -> anisotropic XC          0.010261552134 Eh    ::
         :: -> dispersion             -0.010251980943 Eh    ::
         :: repulsion energy           0.231588441751 Eh    ::
         :: add. restraining           0.000000000000 Eh    ::
         :: total charge               0.000000000000 e     ::
         ::.................................................::
         :: atomisation energy         4.341705178152 Eh    ::
         :::::::::::::::::::::::::::::::::::::::::::::::::::::

           -------------------------------------------------
          |                Property Printout                |
           -------------------------------------------------

    * Orbital Energies and Occupations

         #    Occupation            Energy/Eh            Energy/eV
      -------------------------------------------------------------
         1        2.0000           -0.6790874             -18.4789
       ...           ...                  ...                  ...
         8        2.0000           -0.5507616             -14.9870
         9        2.0000           -0.5340293             -14.5317
        10        2.0000           -0.5251096             -14.2890
        11        2.0000           -0.5208559             -14.1732
        12        2.0000           -0.5103720             -13.8879
        13        2.0000           -0.5035268             -13.7017
        14        2.0000           -0.4901388             -13.3374
        15        2.0000           -0.4643379             -12.6353
        16        2.0000           -0.4535506             -12.3417
        17        2.0000           -0.4497056             -12.2371
        18        2.0000           -0.4467487             -12.1567
        19        2.0000           -0.3935714             -10.7096
        20        2.0000           -0.3878603             -10.5542 (HOMO)
        21                         -0.2256889              -6.1413 (LUMO)
        22                         -0.0447514              -1.2177
        23                          0.0641950               1.7468
        24                          0.0675307               1.8376
        25                          0.0743602               2.0234
        26                          0.0884104               2.4058
        27                          0.0908851               2.4731
        28                          0.0987709               2.6877
        29                          0.1358080               3.6955
        30                          0.1540619               4.1922
        31                          0.1674141               4.5556
       ...                                ...                  ...
        37                          0.4866427              13.2422
      -------------------------------------------------------------
                  HL-Gap            0.1621714 Eh            4.4129 eV
             Fermi-level           -0.3067746 Eh           -8.3478 eV

     #   Z          covCN         q      C6AA      α(0)
     1   6 C        3.798    -0.055    21.571     6.613
     2   6 C        3.796    -0.060    21.654     6.626
     3   6 C        3.729     0.012    20.472     6.459
     4   7 N        2.675    -0.189    25.103     7.441
     5   6 C        2.746     0.265    22.530     7.772
     6   8 O        0.857    -0.444    22.575     6.370
     7   6 C        3.798    -0.073    21.906     6.664
     8   1 H        0.921     0.039     2.468     2.457
     9   1 H        0.921     0.037     2.494     2.470
    10   1 H        0.921     0.045     2.389     2.417
    11   1 H        0.921     0.041     2.430     2.438
    12   1 H        0.921     0.037     2.488     2.467
    13   1 H        0.921     0.042     2.419     2.432
    14   1 H        0.858     0.171     1.269     1.765
    15   1 H        0.921     0.065     2.142     2.289
    16   1 H        0.921     0.068     2.109     2.271

 Mol. C6AA /au·bohr⁶  :       2147.365693
 Mol. C8AA /au·bohr⁸  :      46732.220361
 Mol. α(0) /au        :         68.951134


Wiberg/Mayer (AO) data.
largest (>0.10) Wiberg bond orders for each atom

 ---------------------------------------------------------------------------
     #   Z sym  total        # sym  WBO       # sym  WBO       # sym  WBO
 ---------------------------------------------------------------------------
     1   6 C    3.997 --     2 C    1.010     7 C    1.005     8 H    0.977
                             9 H    0.977
     2   6 C    3.996 --     1 C    1.010     3 C    1.006    10 H    0.976
                            11 H    0.975
     3   6 C    3.976 --     2 C    1.006     4 N    1.000    13 H    0.972
                            12 H    0.965
     4   7 N    3.392 --     5 C    1.201     3 C    1.000    14 H    0.942
                             6 O    0.191
     5   6 C    3.945 --     6 O    1.692     4 N    1.201     7 C    0.999
     6   8 O    1.988 --     5 C    1.692     4 N    0.191
     7   6 C    3.996 --     1 C    1.005     5 C    0.999    16 H    0.964
                            15 H    0.948
     8   1 H    0.999 --     1 C    0.977
     9   1 H    0.999 --     1 C    0.977
    10   1 H    0.998 --     2 C    0.976
    11   1 H    0.998 --     2 C    0.975
    12   1 H    0.999 --     3 C    0.965
    13   1 H    0.998 --     3 C    0.972
    14   1 H    0.971 --     4 N    0.942
    15   1 H    0.996 --     7 C    0.948
    16   1 H    0.995 --     7 C    0.964
 ---------------------------------------------------------------------------

Topologies differ in total number of bonds
Writing topology from bond orders to xtbtopo.mol

molecular dipole:
                 x           y           z       tot (Debye)
 q only:       -0.942      -1.315       0.275
   full:       -1.122      -1.387       0.279       4.588
molecular quadrupole (traceless):
                xx          xy          yy          xz          yz          zz
 q only:        3.252      -8.070      -5.980       0.452       1.963       2.728
  q+dip:        3.421     -10.697      -7.658       0.962       2.306       4.237
   full:        3.237     -10.321      -7.467       1.042       2.392       4.229


           -------------------------------------------------
          | TOTAL ENERGY              -22.293916600040 Eh   |
          | GRADIENT NORM               0.109791682755 Eh/α |
          | HOMO-LUMO GAP               4.412908936021 eV   |
           -------------------------------------------------
########################################################################
[WARNING] Runtime exception occurred
-2- restart_readRestart: Dimension missmatch in restart file.
-1- restart_readRestart: Number of electron missmatch in restart file.
########################################################################

------------------------------------------------------------------------
 unit  open   action     filename
  129 false : read       dft_tmp\556.xyz
  129 false : read       dft_tmp\556.xyz
  129 false : read       dft_tmp\556.xyz
  129 false : read       C:\Users\nkapa\Downloads\xtb-6.7.1pre-windows-x86_64\xtb-6.7.1\share\xtb\param_gfn2-xtb.txt
  129 false : read       xtbrestart
  129 false : replaced   charges
  129 false : replaced   wbo
  129 false : replaced   xtbtopo.mol
  129 false : replaced   xtbrestart

------------------------------------------------------------------------
 * finished run on 2025/06/23 at 11:32:42.791     
------------------------------------------------------------------------
 total:
 * wall-time:     0 d,  0 h,  0 min,  0.053 sec
 *  cpu-time:     0 d,  0 h,  0 min,  0.375 sec
 * ratio c/w:     7.075 speedup
 SCF:
 * wall-time:     0 d,  0 h,  0 min,  0.013 sec
 *  cpu-time:     0 d,  0 h,  0 min,  0.000 sec
 * ratio c/w:     0.000 speedup

normal termination of xtb
