20

C 0.106554 -0.594204 0.331652
C 0.874861 0.667490 -0.092056
C 2.313652 0.563765 0.314898
O 2.690837 1.049726 1.414455
N 3.251192 -0.121580 -0.515071
C -1.374926 -0.584933 -0.098515
C -2.137318 0.505870 0.604852
O -2.276173 1.639479 0.070182
O -2.654304 0.272922 1.875408
N -1.498688 -0.450664 -1.552194
H 0.598303 -1.486850 -0.114820
H 0.163014 -0.705631 1.437527
H 0.819480 0.799332 -1.193825
H 0.427336 1.565831 0.384629
H 4.250395 -0.205191 -0.223896
H 2.948764 -0.550831 -1.417616
H -1.820932 -1.558807 0.206943
H -3.155970 0.998635 2.373231
H -2.509974 -0.540777 -1.805536
H -1.016101 -1.263581 -2.000248
