26

C -0.431043 0.401349 -0.621047
C -0.931344 -0.210718 0.701509
C -2.439023 -0.535820 0.716238
C -3.286303 0.705166 0.575584
O -3.692105 1.086973 -0.555575
O -3.583515 1.461322 1.705133
N -2.774200 -1.552238 -0.286908
C 1.049366 0.782658 -0.544678
N 1.872744 -0.415669 -0.401302
C 3.171178 -0.430798 -0.313625
N 3.841032 -1.683519 -0.174667
N 3.942661 0.777067 -0.352852
H -0.570673 -0.318051 -1.455914
H -1.011068 1.319882 -0.852177
H -0.369650 -1.148588 0.905139
H -0.712790 0.492722 1.535442
H -2.659853 -0.969110 1.717340
H -4.135815 2.307494 1.633487
H -2.728355 -1.142525 -1.247590
H -3.763337 -1.856060 -0.132058
H 1.216880 1.465587 0.317060
H 1.328229 1.311731 -1.482030
H 3.298005 -2.575136 -0.143221
H 4.881727 -1.723847 -0.102343
H 3.504269 1.718147 -0.455582
H 4.982983 0.731982 -0.278684
