      -----------------------------------------------------------      
     |                   =====================                   |     
     |                           x T B                           |     
     |                   =====================                   |     
     |                         S. Grimme                         |     
     |          Mulliken Center for Theoretical Chemistry        |     
     |                    University of Bonn                     |     
      -----------------------------------------------------------      

   * xtb version 6.7.1pre (5071a88) compiled by 'Marcel@Raven' on 2024-07-23

   xtb is free software: you can redistribute it and/or modify it under
   the terms of the GNU Lesser General Public License as published by
   the Free Software Foundation, either version 3 of the License, or
   (at your option) any later version.
   
   xtb is distributed in the hope that it will be useful,
   but WITHOUT ANY WARRANTY; without even the implied warranty of
   MERCHANTABILITY or FITNESS FOR A PARTICULAR PURPOSE.  See the
   GNU Lesser General Public License for more details.
   
   Cite this work as:
   * C. Bannwarth, E. Caldeweyher, S. Ehlert, A. Hansen, P. Pracht,
     J. Seibert, S. Spicher, S. Grimme, WIREs Comput. Mol. Sci., 2020, 11,
     e01493. DOI: 10.1002/wcms.1493
   
   for GFN2-xTB:
   * C. Bannwarth, S. Ehlert and S. Grimme., J. Chem. Theory Comput., 2019,
     15, 1652-1671. DOI: 10.1021/acs.jctc.8b01176
   for GFN1-xTB:
   * S. Grimme, C. Bannwarth, P. Shushkov, J. Chem. Theory Comput., 2017,
     13, 1989-2009. DOI: 10.1021/acs.jctc.7b00118
   for GFN0-xTB:
   * P. Pracht, E. Caldeweyher, S. Ehlert, S. Grimme, ChemRxiv, 2019, preprint.
     DOI: 10.26434/chemrxiv.8326202.v1
   for GFN-FF:
   * S. Spicher and S. Grimme, Angew. Chem. Int. Ed., 2020, 59, 15665-15673.
     DOI: 10.1002/anie.202004239
   
   for ALPB and GBSA implicit solvation:
   * S. Ehlert, M. Stahn, S. Spicher, S. Grimme, J. Chem. Theory Comput.,
     2021, 17, 4250-4261. DOI: 10.1021/acs.jctc.1c00471
   
   for ddCOSMO and CPCM-X implicit solvation:
   * M. Stahn, S. Ehlert, S. Grimme, J. Phys. Chem. A,
     2023, XX, XXXX-XXXX. DOI: 10.1021/acs.jpca.3c04382
   
   for DFT-D4:
   * E. Caldeweyher, C. Bannwarth and S. Grimme, J. Chem. Phys., 2017,
     147, 034112. DOI: 10.1063/1.4993215
   * E. Caldeweyher, S. Ehlert, A. Hansen, H. Neugebauer, S. Spicher,
     C. Bannwarth and S. Grimme, J. Chem. Phys., 2019, 150, 154122.
     DOI: 10.1063/1.5090222
   * E. Caldeweyher, J.-M. Mewes, S. Ehlert and S. Grimme, Phys. Chem. Chem. Phys.
     2020, 22, 8499-8512. DOI: 10.1039/D0CP00502A
   
   for sTDA-xTB:
   * S. Grimme and C. Bannwarth, J. Chem. Phys., 2016, 145, 054103.
     DOI: 10.1063/1.4959605
   
   in the mass-spec context:
   * V. Asgeirsson, C. Bauer and S. Grimme, Chem. Sci., 2017, 8, 4879.
     DOI: 10.1039/c7sc00601b
   * J. Koopman and S. Grimme, ACS Omega 2019, 4, 12, 15120-15133.
     DOI: 10.1021/acsomega.9b02011
   
   for metadynamics refer to:
   * S. Grimme, J. Chem. Theory Comput., 2019, 155, 2847-2862
     DOI: 10.1021/acs.jctc.9b00143
   
   for SPH calculations refer to:
   * S. Spicher and S. Grimme, J. Chem. Theory Comput., 2021, 17, 1701-1714
     DOI: 10.1021/acs.jctc.0c01306
   
   for ONIOM refer to:
   * C. Plett, A. Katbashev, S. Ehlert, S. Grimme, M. Bursch,
     Phys. Chem. Chem. Phys., 2023, 25, 17860-17868. DOI: 10.1039/D3CP02178E
   
   for DIPRO refer to:
   * J. Kohn, N. Gildemeister, S. Grimme, D. Fazzi, A. Hansen,
     J. Chem. Phys., 2023, just accepted.
   
   for PTB refer to:
   * S. Grimme, M. Mueller, A. Hansen, J. Chem. Phys., 2023, 158, 124111.
     DOI: 10.1063/5.0137838
   
   with help from (in alphabetical order)
   P. Atkinson, C. Bannwarth, F. Bohle, G. Brandenburg, E. Caldeweyher
   M. Checinski, S. Dohm, S. Ehlert, S. Ehrlich, I. Gerasimov, C. Hölzer
   A. Katbashev, J. Kohn, J. Koopman, C. Lavigne, S. Lehtola, F. März, M. Müller,
   F. Musil, H. Neugebauer, J. Pisarek, C. Plett, P. Pracht, F. Pultar,
   J. Seibert, P. Shushkov, S. Spicher, M. Stahn, M. Steiner, T. Strunk,
   J. Stückrath, T. Rose, and J. Unsleber
   
 * started run on 2025/06/23 at 11:31:37.533     
$$$$$$$$$$$$$$$$$$$$$$$$$$$$$$$$$$$$$$$$$$$$$$$$$$$$$$$$$$$$$$$$$$$$$$$$
 CONSTRAINTS & SCANS: DEBUG SECTION
$$$$$$$$$$$$$$$$$$$$$$$$$$$$$$$$$$$$$$$$$$$$$$$$$$$$$$$$$$$$$$$$$$$$$$$$
   ID    Z sym.   atoms
    1    6 C      1-3
    2    8 O      4, 5, 7
    3    7 N      6
    4    1 H      8-14
$$$$$$$$$$$$$$$$$$$$$$$$$$$$$$$$$$$$$$$$$$$$$$$$$$$$$$$$$$$$$$$$$$$$$$$$

           -------------------------------------------------
          |                Calculation Setup                |
           -------------------------------------------------

          program call               : C:\Users\nkapa\Downloads\xtb-6.7.1pre-windows-x86_64\xtb-6.7.1\bin\xtb.EXE dft_tmp\67.xyz --gfn2 --parallel 8 --verbose
          coordinate file            : dft_tmp\67.xyz
          xtbhome directory          : C:\Users\nkapa\AppData\Roaming\SPB_Data
          path for xtb               : C:\Users\nkapa\Downloads\xtb-6.7.1pre-windows-x86_64\xtb-6.7.1\share\xtb
          xcontrol input file        : dft_tmp\67.xyz
          omp threads                :                     8


           -------------------------------------------------
          |                 G F N 2 - x T B                 |
           -------------------------------------------------

        Reference                      10.1021/acs.jctc.8b01176
      * Hamiltonian:
        H0-scaling (s, p, d)           1.850000    2.230000    2.230000
        zeta-weighting                 0.500000
      * Dispersion:
        s8                             2.700000
        a1                             0.520000
        a2                             5.000000
        s9                             5.000000
      * Repulsion:
        kExp                           1.500000    1.000000
        rExp                           1.000000
      * Coulomb:
        alpha                          2.000000
        third order                    shell-resolved
        anisotropic                    true
        a3                             3.000000
        a5                             4.000000
        cn-shift                       1.200000
        cn-exp                         4.000000
        max-rad                        5.000000


          ...................................................
          :                      SETUP                      :
          :.................................................:
          :  # basis functions                  35          :
          :  # atomic orbitals                  35          :
          :  # shells                           21          :
          :  # electrons                        42          :
          :  max. iterations                   250          :
          :  Hamiltonian                  GFN2-xTB          :
          :  restarted?                      false          :
          :  GBSA solvation                  false          :
          :  PC potential                    false          :
          :  electronic temp.          300.0000000     K    :
          :  accuracy                    1.0000000          :
          :  -> integral cutoff          0.2500000E+02      :
          :  -> integral neglect         0.1000000E-07      :
          :  -> SCF convergence          0.1000000E-05 Eh   :
          :  -> wf. convergence          0.1000000E-03 e    :
          :  Broyden damping             0.4000000          :
          :  net charge                          0          :
          :  unpaired electrons                  0          :
          ...................................................

 iter      E             dE          RMSdq      gap      omega  full diag
   1    -25.2011234 -0.252011E+02  0.461E+00    3.56       0.0  T
   2    -25.2419339 -0.408105E-01  0.233E+00    3.52       1.0  T
   3    -25.2431696 -0.123579E-02  0.136E+00    3.93       1.0  T
   4    -25.2488232 -0.565351E-02  0.259E-01    3.55       1.0  T
   5    -25.2492149 -0.391729E-03  0.855E-02    3.53       1.0  T
   6    -25.2492364 -0.215400E-04  0.386E-02    3.51       1.0  T
   7    -25.2492385 -0.204422E-05  0.107E-02    3.51       2.5  T
   8    -25.2492386 -0.117340E-06  0.409E-03    3.51       6.5  T
   9    -25.2492386 -0.495851E-07  0.123E-03    3.51      21.7  T
  10    -25.2492386 -0.137287E-08  0.489E-04    3.51      54.6  T
  11    -25.2492386 -0.943228E-09  0.185E-04    3.51     144.8  T

   *** convergence criteria satisfied after 11 iterations ***

         #    Occupation            Energy/Eh            Energy/eV
      -------------------------------------------------------------
         1        2.0000           -0.7261640             -19.7599
       ...           ...                  ...                  ...
        15        2.0000           -0.5037141             -13.7068
        16        2.0000           -0.4832421             -13.1497
        17        2.0000           -0.4691210             -12.7654
        18        2.0000           -0.4634851             -12.6121
        19        2.0000           -0.4294220             -11.6852
        20        2.0000           -0.4210069             -11.4562
        21        2.0000           -0.3897973             -10.6069 (HOMO)
        22                         -0.2607565              -7.0955 (LUMO)
        23                         -0.0456468              -1.2421
        24                          0.0033821               0.0920
        25                          0.0351644               0.9569
        26                          0.0804733               2.1898
       ...                                ...                  ...
        35                          0.4588142              12.4850
      -------------------------------------------------------------
                  HL-Gap            0.1290407 Eh            3.5114 eV
             Fermi-level           -0.3252769 Eh           -8.8512 eV

 SCC (total)                   0 d,  0 h,  0 min,  0.011 sec
 SCC setup                      ...        0 min,  0.000 sec (  0.000%)
 Dispersion                     ...        0 min,  0.001 sec (  9.090%)
 classical contributions        ...        0 min,  0.000 sec (  0.000%)
 integral evaluation            ...        0 min,  0.000 sec (  0.000%)
 iterations                     ...        0 min,  0.008 sec ( 72.729%)
 molecular gradient             ...        0 min,  0.001 sec (  9.090%)
 printout                       ...        0 min,  0.001 sec (  9.090%)

         :::::::::::::::::::::::::::::::::::::::::::::::::::::
         ::                     SUMMARY                     ::
         :::::::::::::::::::::::::::::::::::::::::::::::::::::
         :: total energy             -25.077416147045 Eh    ::
         :: gradient norm              0.140781761421 Eh/a0 ::
         :: HOMO-LUMO gap              3.511377189832 eV    ::
         ::.................................................::
         :: HOMO orbital eigv.       -10.606923250663 eV    ::
         :: LUMO orbital eigv.        -7.095546060831 eV    ::
         ::.................................................::
         :: SCC energy               -25.249217758409 Eh    ::
         :: -> isotropic ES            0.083392062321 Eh    ::
         :: -> anisotropic ES          0.003002198798 Eh    ::
         :: -> anisotropic XC          0.004031564541 Eh    ::
         :: -> dispersion             -0.008060694450 Eh    ::
         :: repulsion energy           0.171801611363 Eh    ::
         :: add. restraining           0.000000000000 Eh    ::
         :: total charge               0.000000000000 e     ::
         ::.................................................::
         :: atomisation energy         3.626343574758 Eh    ::
         :::::::::::::::::::::::::::::::::::::::::::::::::::::

           -------------------------------------------------
          |                Property Printout                |
           -------------------------------------------------

    * Orbital Energies and Occupations

         #    Occupation            Energy/Eh            Energy/eV
      -------------------------------------------------------------
         1        2.0000           -0.7261640             -19.7599
       ...           ...                  ...                  ...
         9        2.0000           -0.5743633             -15.6292
        10        2.0000           -0.5662734             -15.4091
        11        2.0000           -0.5605839             -15.2543
        12        2.0000           -0.5357590             -14.5787
        13        2.0000           -0.5323779             -14.4867
        14        2.0000           -0.5139839             -13.9862
        15        2.0000           -0.5037141             -13.7068
        16        2.0000           -0.4832421             -13.1497
        17        2.0000           -0.4691210             -12.7654
        18        2.0000           -0.4634851             -12.6121
        19        2.0000           -0.4294220             -11.6852
        20        2.0000           -0.4210069             -11.4562
        21        2.0000           -0.3897973             -10.6069 (HOMO)
        22                         -0.2607565              -7.0955 (LUMO)
        23                         -0.0456468              -1.2421
        24                          0.0033821               0.0920
        25                          0.0351644               0.9569
        26                          0.0804733               2.1898
        27                          0.0937097               2.5500
        28                          0.1117364               3.0405
        29                          0.1226486               3.3374
        30                          0.1445995               3.9348
        31                          0.1692471               4.6054
        32                          0.1798577               4.8942
       ...                                ...                  ...
        35                          0.4588142              12.4850
      -------------------------------------------------------------
                  HL-Gap            0.1290407 Eh            3.5114 eV
             Fermi-level           -0.3252769 Eh           -8.8512 eV

     #   Z          covCN         q      C6AA      α(0)
     1   6 C        3.672     0.085    19.388     6.311
     2   6 C        3.779     0.039    19.946     6.363
     3   6 C        2.691     0.354    20.984     7.497
     4   8 O        0.856    -0.403    21.749     6.253
     5   8 O        1.647    -0.369    20.254     6.075
     6   7 N        2.627    -0.328    28.439     7.920
     7   8 O        1.652    -0.436    21.554     6.267
     8   1 H        0.921     0.031     2.576     2.510
     9   1 H        0.921     0.021     2.713     2.576
    10   1 H        0.921     0.073     2.051     2.240
    11   1 H        0.796     0.332     0.633     1.251
    12   1 H        0.857     0.148     1.418     1.866
    13   1 H        0.857     0.155     1.369     1.833
    14   1 H        0.801     0.297     0.731     1.344

 Mol. C6AA /au·bohr⁶  :       1694.574275
 Mol. C8AA /au·bohr⁸  :      35770.885008
 Mol. α(0) /au        :         60.304127


Wiberg/Mayer (AO) data.
largest (>0.10) Wiberg bond orders for each atom

 ---------------------------------------------------------------------------
     #   Z sym  total        # sym  WBO       # sym  WBO       # sym  WBO
 ---------------------------------------------------------------------------
     1   6 C    3.961 --     7 O    1.004     8 H    0.968     9 H    0.967
                             2 C    0.961
     2   6 C    3.985 --     6 N    1.013     3 C    0.974     1 C    0.961
                            10 H    0.959
     3   6 C    3.914 --     4 O    1.760     5 O    1.135     2 C    0.974
     4   8 O    2.020 --     3 C    1.760     5 O    0.179
     5   8 O    2.204 --     3 C    1.135    11 H    0.863     4 O    0.179
     6   7 N    3.006 --     2 C    1.013    12 H    0.962    13 H    0.960
     7   8 O    1.956 --     1 C    1.004    14 H    0.897
     8   1 H    0.999 --     1 C    0.968
     9   1 H    0.999 --     1 C    0.967
    10   1 H    0.995 --     2 C    0.959
    11   1 H    0.889 --     5 O    0.863
    12   1 H    0.978 --     6 N    0.962
    13   1 H    0.976 --     6 N    0.960
    14   1 H    0.912 --     7 O    0.897
 ---------------------------------------------------------------------------

Topologies differ in total number of bonds
Writing topology from bond orders to xtbtopo.mol

molecular dipole:
                 x           y           z       tot (Debye)
 q only:       -0.669      -0.248      -0.367
   full:       -1.122      -0.161      -0.209       2.929
molecular quadrupole (traceless):
                xx          xy          yy          xz          yz          zz
 q only:        5.608      -5.333      -4.380       0.625      -3.583      -1.229
  q+dip:        8.375      -7.314      -6.656       3.061      -2.544      -1.719
   full:        8.149      -6.971      -6.550       2.303      -3.544      -1.599


           -------------------------------------------------
          | TOTAL ENERGY              -25.077416147045 Eh   |
          | GRADIENT NORM               0.140781761421 Eh/α |
          | HOMO-LUMO GAP               3.511377189832 eV   |
           -------------------------------------------------
########################################################################
[WARNING] Runtime exception occurred
-2- restart_readRestart: Dimension missmatch in restart file.
-1- restart_readRestart: Number of electron missmatch in restart file.
########################################################################

------------------------------------------------------------------------
 unit  open   action     filename
  129 false : read       dft_tmp\67.xyz
  129 false : read       dft_tmp\67.xyz
  129 false : read       dft_tmp\67.xyz
  129 false : read       C:\Users\nkapa\Downloads\xtb-6.7.1pre-windows-x86_64\xtb-6.7.1\share\xtb\param_gfn2-xtb.txt
  129 false : read       xtbrestart
  129 false : replaced   charges
  129 false : replaced   wbo
  129 false : replaced   xtbtopo.mol
  129 false : replaced   xtbrestart

------------------------------------------------------------------------
 * finished run on 2025/06/23 at 11:31:37.581     
------------------------------------------------------------------------
 total:
 * wall-time:     0 d,  0 h,  0 min,  0.046 sec
 *  cpu-time:     0 d,  0 h,  0 min,  0.234 sec
 * ratio c/w:     5.095 speedup
 SCF:
 * wall-time:     0 d,  0 h,  0 min,  0.011 sec
 *  cpu-time:     0 d,  0 h,  0 min,  0.125 sec
 * ratio c/w:    11.364 speedup

normal termination of xtb
