17

C -1.382721 0.537881 0.664240
C -0.657603 0.896446 -0.611093
C 0.369810 -0.213249 -0.786335
N -0.168223 -1.408704 -0.124264
C -1.218771 -0.969432 0.798619
C 1.709971 0.188606 -0.218132
O 1.847153 0.382547 1.020237
O 2.796420 0.361285 -1.069902
H -2.454234 0.830813 0.617232
H -0.900115 1.048774 1.526509
H -1.375964 0.872426 -1.460568
H -0.202099 1.910197 -0.555296
H 0.494749 -0.430112 -1.869613
H 0.573797 -1.928332 0.402528
H -0.965478 -1.238336 1.848950
H -2.168422 -1.477036 0.524834
H 3.701730 0.636224 -0.707946
