      -----------------------------------------------------------      
     |                   =====================                   |     
     |                           x T B                           |     
     |                   =====================                   |     
     |                         S. Grimme                         |     
     |          Mulliken Center for Theoretical Chemistry        |     
     |                    University of Bonn                     |     
      -----------------------------------------------------------      

   * xtb version 6.7.1pre (5071a88) compiled by 'Marcel@Raven' on 2024-07-23

   xtb is free software: you can redistribute it and/or modify it under
   the terms of the GNU Lesser General Public License as published by
   the Free Software Foundation, either version 3 of the License, or
   (at your option) any later version.
   
   xtb is distributed in the hope that it will be useful,
   but WITHOUT ANY WARRANTY; without even the implied warranty of
   MERCHANTABILITY or FITNESS FOR A PARTICULAR PURPOSE.  See the
   GNU Lesser General Public License for more details.
   
   Cite this work as:
   * C. Bannwarth, E. Caldeweyher, S. Ehlert, A. Hansen, P. Pracht,
     J. Seibert, S. Spicher, S. Grimme, WIREs Comput. Mol. Sci., 2020, 11,
     e01493. DOI: 10.1002/wcms.1493
   
   for GFN2-xTB:
   * C. Bannwarth, S. Ehlert and S. Grimme., J. Chem. Theory Comput., 2019,
     15, 1652-1671. DOI: 10.1021/acs.jctc.8b01176
   for GFN1-xTB:
   * S. Grimme, C. Bannwarth, P. Shushkov, J. Chem. Theory Comput., 2017,
     13, 1989-2009. DOI: 10.1021/acs.jctc.7b00118
   for GFN0-xTB:
   * P. Pracht, E. Caldeweyher, S. Ehlert, S. Grimme, ChemRxiv, 2019, preprint.
     DOI: 10.26434/chemrxiv.8326202.v1
   for GFN-FF:
   * S. Spicher and S. Grimme, Angew. Chem. Int. Ed., 2020, 59, 15665-15673.
     DOI: 10.1002/anie.202004239
   
   for ALPB and GBSA implicit solvation:
   * S. Ehlert, M. Stahn, S. Spicher, S. Grimme, J. Chem. Theory Comput.,
     2021, 17, 4250-4261. DOI: 10.1021/acs.jctc.1c00471
   
   for ddCOSMO and CPCM-X implicit solvation:
   * M. Stahn, S. Ehlert, S. Grimme, J. Phys. Chem. A,
     2023, XX, XXXX-XXXX. DOI: 10.1021/acs.jpca.3c04382
   
   for DFT-D4:
   * E. Caldeweyher, C. Bannwarth and S. Grimme, J. Chem. Phys., 2017,
     147, 034112. DOI: 10.1063/1.4993215
   * E. Caldeweyher, S. Ehlert, A. Hansen, H. Neugebauer, S. Spicher,
     C. Bannwarth and S. Grimme, J. Chem. Phys., 2019, 150, 154122.
     DOI: 10.1063/1.5090222
   * E. Caldeweyher, J.-M. Mewes, S. Ehlert and S. Grimme, Phys. Chem. Chem. Phys.
     2020, 22, 8499-8512. DOI: 10.1039/D0CP00502A
   
   for sTDA-xTB:
   * S. Grimme and C. Bannwarth, J. Chem. Phys., 2016, 145, 054103.
     DOI: 10.1063/1.4959605
   
   in the mass-spec context:
   * V. Asgeirsson, C. Bauer and S. Grimme, Chem. Sci., 2017, 8, 4879.
     DOI: 10.1039/c7sc00601b
   * J. Koopman and S. Grimme, ACS Omega 2019, 4, 12, 15120-15133.
     DOI: 10.1021/acsomega.9b02011
   
   for metadynamics refer to:
   * S. Grimme, J. Chem. Theory Comput., 2019, 155, 2847-2862
     DOI: 10.1021/acs.jctc.9b00143
   
   for SPH calculations refer to:
   * S. Spicher and S. Grimme, J. Chem. Theory Comput., 2021, 17, 1701-1714
     DOI: 10.1021/acs.jctc.0c01306
   
   for ONIOM refer to:
   * C. Plett, A. Katbashev, S. Ehlert, S. Grimme, M. Bursch,
     Phys. Chem. Chem. Phys., 2023, 25, 17860-17868. DOI: 10.1039/D3CP02178E
   
   for DIPRO refer to:
   * J. Kohn, N. Gildemeister, S. Grimme, D. Fazzi, A. Hansen,
     J. Chem. Phys., 2023, just accepted.
   
   for PTB refer to:
   * S. Grimme, M. Mueller, A. Hansen, J. Chem. Phys., 2023, 158, 124111.
     DOI: 10.1063/5.0137838
   
   with help from (in alphabetical order)
   P. Atkinson, C. Bannwarth, F. Bohle, G. Brandenburg, E. Caldeweyher
   M. Checinski, S. Dohm, S. Ehlert, S. Ehrlich, I. Gerasimov, C. Hölzer
   A. Katbashev, J. Kohn, J. Koopman, C. Lavigne, S. Lehtola, F. März, M. Müller,
   F. Musil, H. Neugebauer, J. Pisarek, C. Plett, P. Pracht, F. Pultar,
   J. Seibert, P. Shushkov, S. Spicher, M. Stahn, M. Steiner, T. Strunk,
   J. Stückrath, T. Rose, and J. Unsleber
   
 * started run on 2025/06/23 at 11:31:38.384     
$$$$$$$$$$$$$$$$$$$$$$$$$$$$$$$$$$$$$$$$$$$$$$$$$$$$$$$$$$$$$$$$$$$$$$$$
 CONSTRAINTS & SCANS: DEBUG SECTION
$$$$$$$$$$$$$$$$$$$$$$$$$$$$$$$$$$$$$$$$$$$$$$$$$$$$$$$$$$$$$$$$$$$$$$$$
   ID    Z sym.   atoms
    1    6 C      1-6
    2    8 O      7-12
    3    1 H      13-22
$$$$$$$$$$$$$$$$$$$$$$$$$$$$$$$$$$$$$$$$$$$$$$$$$$$$$$$$$$$$$$$$$$$$$$$$

           -------------------------------------------------
          |                Calculation Setup                |
           -------------------------------------------------

          program call               : C:\Users\nkapa\Downloads\xtb-6.7.1pre-windows-x86_64\xtb-6.7.1\bin\xtb.EXE dft_tmp\74.xyz --gfn2 --parallel 8 --verbose
          coordinate file            : dft_tmp\74.xyz
          xtbhome directory          : C:\Users\nkapa\AppData\Roaming\SPB_Data
          path for xtb               : C:\Users\nkapa\Downloads\xtb-6.7.1pre-windows-x86_64\xtb-6.7.1\share\xtb
          xcontrol input file        : dft_tmp\74.xyz
          omp threads                :                     8


           -------------------------------------------------
          |                 G F N 2 - x T B                 |
           -------------------------------------------------

        Reference                      10.1021/acs.jctc.8b01176
      * Hamiltonian:
        H0-scaling (s, p, d)           1.850000    2.230000    2.230000
        zeta-weighting                 0.500000
      * Dispersion:
        s8                             2.700000
        a1                             0.520000
        a2                             5.000000
        s9                             5.000000
      * Repulsion:
        kExp                           1.500000    1.000000
        rExp                           1.000000
      * Coulomb:
        alpha                          2.000000
        third order                    shell-resolved
        anisotropic                    true
        a3                             3.000000
        a5                             4.000000
        cn-shift                       1.200000
        cn-exp                         4.000000
        max-rad                        5.000000


          ...................................................
          :                      SETUP                      :
          :.................................................:
          :  # basis functions                  58          :
          :  # atomic orbitals                  58          :
          :  # shells                           34          :
          :  # electrons                        70          :
          :  max. iterations                   250          :
          :  Hamiltonian                  GFN2-xTB          :
          :  restarted?                      false          :
          :  GBSA solvation                  false          :
          :  PC potential                    false          :
          :  electronic temp.          300.0000000     K    :
          :  accuracy                    1.0000000          :
          :  -> integral cutoff          0.2500000E+02      :
          :  -> integral neglect         0.1000000E-07      :
          :  -> SCF convergence          0.1000000E-05 Eh   :
          :  -> wf. convergence          0.1000000E-03 e    :
          :  Broyden damping             0.4000000          :
          :  net charge                          0          :
          :  unpaired electrons                  0          :
          ...................................................

 iter      E             dE          RMSdq      gap      omega  full diag
   1    -42.5042582 -0.425043E+02  0.508E+00    4.49       0.0  T
   2    -42.5644986 -0.602404E-01  0.267E+00    3.51       1.0  T
   3    -42.5628085  0.169009E-02  0.152E+00    3.97       1.0  T
   4    -42.5769722 -0.141637E-01  0.220E-01    3.61       1.0  T
   5    -42.5772082 -0.235995E-03  0.931E-02    3.72       1.0  T
   6    -42.5772240 -0.158143E-04  0.329E-02    3.72       1.0  T
   7    -42.5772258 -0.175244E-05  0.113E-02    3.72       1.9  T
   8    -42.5772261 -0.358699E-06  0.375E-03    3.72       5.7  T
   9    -42.5772262 -0.506428E-07  0.162E-03    3.72      13.1  T
  10    -42.5772262 -0.528036E-08  0.531E-04    3.72      40.2  T
  11    -42.5772262 -0.941483E-09  0.216E-04    3.72      98.6  T

   *** convergence criteria satisfied after 11 iterations ***

         #    Occupation            Energy/Eh            Energy/eV
      -------------------------------------------------------------
         1        2.0000           -0.7570147             -20.5994
       ...           ...                  ...                  ...
        29        2.0000           -0.4784466             -13.0192
        30        2.0000           -0.4676440             -12.7252
        31        2.0000           -0.4620341             -12.5726
        32        2.0000           -0.4552216             -12.3872
        33        2.0000           -0.4367262             -11.8839
        34        2.0000           -0.4219696             -11.4824
        35        2.0000           -0.4193345             -11.4107 (HOMO)
        36                         -0.2827256              -7.6934 (LUMO)
        37                         -0.0794371              -2.1616
        38                         -0.0123534              -0.3362
        39                         -0.0086257              -0.2347
        40                          0.0118472               0.3224
       ...                                ...                  ...
        58                          0.4282564              11.6535
      -------------------------------------------------------------
                  HL-Gap            0.1366088 Eh            3.7173 eV
             Fermi-level           -0.3510301 Eh           -9.5520 eV

 SCC (total)                   0 d,  0 h,  0 min,  0.017 sec
 SCC setup                      ...        0 min,  0.001 sec (  5.882%)
 Dispersion                     ...        0 min,  0.000 sec (  0.000%)
 classical contributions        ...        0 min,  0.000 sec (  0.000%)
 integral evaluation            ...        0 min,  0.001 sec (  5.883%)
 iterations                     ...        0 min,  0.013 sec ( 76.471%)
 molecular gradient             ...        0 min,  0.002 sec ( 11.764%)
 printout                       ...        0 min,  0.000 sec (  0.000%)

         :::::::::::::::::::::::::::::::::::::::::::::::::::::
         ::                     SUMMARY                     ::
         :::::::::::::::::::::::::::::::::::::::::::::::::::::
         :: total energy             -42.310024427223 Eh    ::
         :: gradient norm              0.137472674210 Eh/a0 ::
         :: HOMO-LUMO gap              3.717315956191 eV    ::
         ::.................................................::
         :: HOMO orbital eigv.       -11.410672068139 eV    ::
         :: LUMO orbital eigv.        -7.693356111948 eV    ::
         ::.................................................::
         :: SCC energy               -42.577135310958 Eh    ::
         :: -> isotropic ES            0.131941772793 Eh    ::
         :: -> anisotropic ES          0.006883317840 Eh    ::
         :: -> anisotropic XC         -0.007321915179 Eh    ::
         :: -> dispersion             -0.017230542490 Eh    ::
         :: repulsion energy           0.267110883735 Eh    ::
         :: add. restraining           0.000000000000 Eh    ::
         :: total charge               0.000000000000 e     ::
         ::.................................................::
         :: atomisation energy         6.043163178277 Eh    ::
         :::::::::::::::::::::::::::::::::::::::::::::::::::::

           -------------------------------------------------
          |                Property Printout                |
           -------------------------------------------------

    * Orbital Energies and Occupations

         #    Occupation            Energy/Eh            Energy/eV
      -------------------------------------------------------------
         1        2.0000           -0.7570147             -20.5994
       ...           ...                  ...                  ...
        23        2.0000           -0.5354492             -14.5703
        24        2.0000           -0.5269617             -14.3394
        25        2.0000           -0.5234639             -14.2442
        26        2.0000           -0.5163614             -14.0509
        27        2.0000           -0.4952554             -13.4766
        28        2.0000           -0.4869922             -13.2517
        29        2.0000           -0.4784466             -13.0192
        30        2.0000           -0.4676440             -12.7252
        31        2.0000           -0.4620341             -12.5726
        32        2.0000           -0.4552216             -12.3872
        33        2.0000           -0.4367262             -11.8839
        34        2.0000           -0.4219696             -11.4824
        35        2.0000           -0.4193345             -11.4107 (HOMO)
        36                         -0.2827256              -7.6934 (LUMO)
        37                         -0.0794371              -2.1616
        38                         -0.0123534              -0.3362
        39                         -0.0086257              -0.2347
        40                          0.0118472               0.3224
        41                          0.0228906               0.6229
        42                          0.0410998               1.1184
        43                          0.0464219               1.2632
        44                          0.0596671               1.6236
        45                          0.0717393               1.9521
        46                          0.0895371               2.4364
       ...                                ...                  ...
        58                          0.4282564              11.6535
      -------------------------------------------------------------
                  HL-Gap            0.1366088 Eh            3.7173 eV
             Fermi-level           -0.3510301 Eh           -9.5520 eV

     #   Z          covCN         q      C6AA      α(0)
     1   6 C        3.669     0.083    19.430     6.319
     2   6 C        3.724     0.093    19.140     6.247
     3   6 C        3.721     0.087    19.243     6.265
     4   6 C        3.725     0.093    19.142     6.247
     5   6 C        3.724     0.086    19.258     6.266
     6   6 C        2.691     0.319    21.572     7.601
     7   8 O        0.856    -0.355    20.803     6.115
     8   8 O        1.700    -0.274    18.550     5.815
     9   8 O        1.652    -0.409    21.023     6.190
    10   8 O        1.652    -0.410    21.038     6.192
    11   8 O        1.651    -0.405    20.949     6.179
    12   8 O        1.652    -0.422    21.286     6.228
    13   1 H        0.921     0.035     2.517     2.481
    14   1 H        0.921     0.045     2.388     2.417
    15   1 H        0.921     0.060     2.203     2.321
    16   1 H        0.921     0.047     2.352     2.399
    17   1 H        0.921     0.065     2.145     2.291
    18   1 H        0.921     0.044     2.402     2.424
    19   1 H        0.801     0.315     0.677     1.293
    20   1 H        0.801     0.295     0.736     1.348
    21   1 H        0.801     0.304     0.710     1.324
    22   1 H        0.801     0.303     0.711     1.325

 Mol. C6AA /au·bohr⁶  :       4376.230502
 Mol. C8AA /au·bohr⁸  :      94899.173551
 Mol. α(0) /au        :         95.287123


Wiberg/Mayer (AO) data.
largest (>0.10) Wiberg bond orders for each atom

 ---------------------------------------------------------------------------
     #   Z sym  total        # sym  WBO       # sym  WBO       # sym  WBO
 ---------------------------------------------------------------------------
     1   6 C    3.962 --    12 O    1.011     2 C    0.983    13 H    0.967
                            14 H    0.966
     2   6 C    3.927 --     1 C    0.983     3 C    0.961    15 H    0.951
                             8 O    0.943
     3   6 C    3.967 --    11 O    1.019     2 C    0.961     4 C    0.957
                            16 H    0.956
     4   6 C    3.964 --    10 O    1.014     5 C    0.960     3 C    0.957
                            17 H    0.954
     5   6 C    3.970 --     9 O    1.009     4 C    0.960     6 C    0.960
                            18 H    0.932
     6   6 C    3.915 --     7 O    1.778     8 O    1.093     5 C    0.960
     7   8 O    2.057 --     6 C    1.778     8 O    0.162
     8   8 O    2.288 --     6 C    1.093     2 C    0.943     7 O    0.162
     9   8 O    1.978 --     5 C    1.009    19 H    0.886
    10   8 O    1.989 --     4 C    1.014    20 H    0.892
    11   8 O    1.990 --     3 C    1.019    21 H    0.888
    12   8 O    1.958 --     1 C    1.011    22 H    0.893
    13   1 H    0.999 --     1 C    0.967
    14   1 H    0.998 --     1 C    0.966
    15   1 H    0.996 --     2 C    0.951
    16   1 H    0.998 --     3 C    0.956
    17   1 H    0.996 --     4 C    0.954
    18   1 H    0.998 --     5 C    0.932
    19   1 H    0.900 --     9 O    0.886
    20   1 H    0.913 --    10 O    0.892
    21   1 H    0.908 --    11 O    0.888
    22   1 H    0.907 --    12 O    0.893
 ---------------------------------------------------------------------------

Topologies differ in total number of bonds
Writing topology from bond orders to xtbtopo.mol

molecular dipole:
                 x           y           z       tot (Debye)
 q only:        0.766      -0.591      -0.697
   full:        0.948      -0.328      -1.009       3.616
molecular quadrupole (traceless):
                xx          xy          yy          xz          yz          zz
 q only:       10.403       0.369     -16.157       4.849      -2.378       5.754
  q+dip:       10.626       1.865     -23.003       6.930      -2.547      12.377
   full:       10.746       1.141     -22.424       6.595      -3.060      11.678


           -------------------------------------------------
          | TOTAL ENERGY              -42.310024427223 Eh   |
          | GRADIENT NORM               0.137472674210 Eh/α |
          | HOMO-LUMO GAP               3.717315956191 eV   |
           -------------------------------------------------
########################################################################
[WARNING] Runtime exception occurred
-2- restart_readRestart: Dimension missmatch in restart file.
-1- restart_readRestart: Number of electron missmatch in restart file.
########################################################################

------------------------------------------------------------------------
 unit  open   action     filename
  129 false : read       dft_tmp\74.xyz
  129 false : read       dft_tmp\74.xyz
  129 false : read       dft_tmp\74.xyz
  129 false : read       C:\Users\nkapa\Downloads\xtb-6.7.1pre-windows-x86_64\xtb-6.7.1\share\xtb\param_gfn2-xtb.txt
  129 false : read       xtbrestart
  129 false : replaced   charges
  129 false : replaced   wbo
  129 false : replaced   xtbtopo.mol
  129 false : replaced   xtbrestart

------------------------------------------------------------------------
 * finished run on 2025/06/23 at 11:31:38.441     
------------------------------------------------------------------------
 total:
 * wall-time:     0 d,  0 h,  0 min,  0.055 sec
 *  cpu-time:     0 d,  0 h,  0 min,  0.375 sec
 * ratio c/w:     6.818 speedup
 SCF:
 * wall-time:     0 d,  0 h,  0 min,  0.017 sec
 *  cpu-time:     0 d,  0 h,  0 min,  0.125 sec
 * ratio c/w:     7.353 speedup

normal termination of xtb
