20

C -2.089693 -1.013388 -0.957436
O -2.933744 -0.264177 -1.423695
C -1.358509 -0.657136 0.311528
C -0.538601 0.650705 0.166012
C 0.762476 0.510628 -0.682144
C 1.918999 0.404478 0.333013
C 1.282214 0.904146 1.567548
O 1.905844 1.160010 2.630597
O -0.081681 1.053795 1.447559
O 2.320245 -0.925911 0.528190
O 0.742402 -0.589149 -1.557098
O -2.273591 -0.558544 1.374657
H -1.867324 -1.947027 -1.463928
H -0.659481 -1.487097 0.553119
H -1.182403 1.455198 -0.253456
H 0.909137 1.453894 -1.261373
H 2.779965 1.052861 0.048432
H 2.970482 -1.132117 -0.192906
H 0.250302 -0.297518 -2.368361
H -2.857038 0.226348 1.199740
