      -----------------------------------------------------------      
     |                   =====================                   |     
     |                           x T B                           |     
     |                   =====================                   |     
     |                         S. Grimme                         |     
     |          Mulliken Center for Theoretical Chemistry        |     
     |                    University of Bonn                     |     
      -----------------------------------------------------------      

   * xtb version 6.7.1pre (5071a88) compiled by 'Marcel@Raven' on 2024-07-23

   xtb is free software: you can redistribute it and/or modify it under
   the terms of the GNU Lesser General Public License as published by
   the Free Software Foundation, either version 3 of the License, or
   (at your option) any later version.
   
   xtb is distributed in the hope that it will be useful,
   but WITHOUT ANY WARRANTY; without even the implied warranty of
   MERCHANTABILITY or FITNESS FOR A PARTICULAR PURPOSE.  See the
   GNU Lesser General Public License for more details.
   
   Cite this work as:
   * C. Bannwarth, E. Caldeweyher, S. Ehlert, A. Hansen, P. Pracht,
     J. Seibert, S. Spicher, S. Grimme, WIREs Comput. Mol. Sci., 2020, 11,
     e01493. DOI: 10.1002/wcms.1493
   
   for GFN2-xTB:
   * C. Bannwarth, S. Ehlert and S. Grimme., J. Chem. Theory Comput., 2019,
     15, 1652-1671. DOI: 10.1021/acs.jctc.8b01176
   for GFN1-xTB:
   * S. Grimme, C. Bannwarth, P. Shushkov, J. Chem. Theory Comput., 2017,
     13, 1989-2009. DOI: 10.1021/acs.jctc.7b00118
   for GFN0-xTB:
   * P. Pracht, E. Caldeweyher, S. Ehlert, S. Grimme, ChemRxiv, 2019, preprint.
     DOI: 10.26434/chemrxiv.8326202.v1
   for GFN-FF:
   * S. Spicher and S. Grimme, Angew. Chem. Int. Ed., 2020, 59, 15665-15673.
     DOI: 10.1002/anie.202004239
   
   for ALPB and GBSA implicit solvation:
   * S. Ehlert, M. Stahn, S. Spicher, S. Grimme, J. Chem. Theory Comput.,
     2021, 17, 4250-4261. DOI: 10.1021/acs.jctc.1c00471
   
   for ddCOSMO and CPCM-X implicit solvation:
   * M. Stahn, S. Ehlert, S. Grimme, J. Phys. Chem. A,
     2023, XX, XXXX-XXXX. DOI: 10.1021/acs.jpca.3c04382
   
   for DFT-D4:
   * E. Caldeweyher, C. Bannwarth and S. Grimme, J. Chem. Phys., 2017,
     147, 034112. DOI: 10.1063/1.4993215
   * E. Caldeweyher, S. Ehlert, A. Hansen, H. Neugebauer, S. Spicher,
     C. Bannwarth and S. Grimme, J. Chem. Phys., 2019, 150, 154122.
     DOI: 10.1063/1.5090222
   * E. Caldeweyher, J.-M. Mewes, S. Ehlert and S. Grimme, Phys. Chem. Chem. Phys.
     2020, 22, 8499-8512. DOI: 10.1039/D0CP00502A
   
   for sTDA-xTB:
   * S. Grimme and C. Bannwarth, J. Chem. Phys., 2016, 145, 054103.
     DOI: 10.1063/1.4959605
   
   in the mass-spec context:
   * V. Asgeirsson, C. Bauer and S. Grimme, Chem. Sci., 2017, 8, 4879.
     DOI: 10.1039/c7sc00601b
   * J. Koopman and S. Grimme, ACS Omega 2019, 4, 12, 15120-15133.
     DOI: 10.1021/acsomega.9b02011
   
   for metadynamics refer to:
   * S. Grimme, J. Chem. Theory Comput., 2019, 155, 2847-2862
     DOI: 10.1021/acs.jctc.9b00143
   
   for SPH calculations refer to:
   * S. Spicher and S. Grimme, J. Chem. Theory Comput., 2021, 17, 1701-1714
     DOI: 10.1021/acs.jctc.0c01306
   
   for ONIOM refer to:
   * C. Plett, A. Katbashev, S. Ehlert, S. Grimme, M. Bursch,
     Phys. Chem. Chem. Phys., 2023, 25, 17860-17868. DOI: 10.1039/D3CP02178E
   
   for DIPRO refer to:
   * J. Kohn, N. Gildemeister, S. Grimme, D. Fazzi, A. Hansen,
     J. Chem. Phys., 2023, just accepted.
   
   for PTB refer to:
   * S. Grimme, M. Mueller, A. Hansen, J. Chem. Phys., 2023, 158, 124111.
     DOI: 10.1063/5.0137838
   
   with help from (in alphabetical order)
   P. Atkinson, C. Bannwarth, F. Bohle, G. Brandenburg, E. Caldeweyher
   M. Checinski, S. Dohm, S. Ehlert, S. Ehrlich, I. Gerasimov, C. Hölzer
   A. Katbashev, J. Kohn, J. Koopman, C. Lavigne, S. Lehtola, F. März, M. Müller,
   F. Musil, H. Neugebauer, J. Pisarek, C. Plett, P. Pracht, F. Pultar,
   J. Seibert, P. Shushkov, S. Spicher, M. Stahn, M. Steiner, T. Strunk,
   J. Stückrath, T. Rose, and J. Unsleber
   
 * started run on 2025/06/23 at 11:31:40.702     
$$$$$$$$$$$$$$$$$$$$$$$$$$$$$$$$$$$$$$$$$$$$$$$$$$$$$$$$$$$$$$$$$$$$$$$$
 CONSTRAINTS & SCANS: DEBUG SECTION
$$$$$$$$$$$$$$$$$$$$$$$$$$$$$$$$$$$$$$$$$$$$$$$$$$$$$$$$$$$$$$$$$$$$$$$$
   ID    Z sym.   atoms
    1    8 O      1, 3, 6, 8, 9
    2    6 C      2, 4, 5, 7
    3    1 H      10-15
$$$$$$$$$$$$$$$$$$$$$$$$$$$$$$$$$$$$$$$$$$$$$$$$$$$$$$$$$$$$$$$$$$$$$$$$

           -------------------------------------------------
          |                Calculation Setup                |
           -------------------------------------------------

          program call               : C:\Users\nkapa\Downloads\xtb-6.7.1pre-windows-x86_64\xtb-6.7.1\bin\xtb.EXE dft_tmp\92.xyz --gfn2 --parallel 8 --verbose
          coordinate file            : dft_tmp\92.xyz
          xtbhome directory          : C:\Users\nkapa\AppData\Roaming\SPB_Data
          path for xtb               : C:\Users\nkapa\Downloads\xtb-6.7.1pre-windows-x86_64\xtb-6.7.1\share\xtb
          xcontrol input file        : dft_tmp\92.xyz
          omp threads                :                     8


           -------------------------------------------------
          |                 G F N 2 - x T B                 |
           -------------------------------------------------

        Reference                      10.1021/acs.jctc.8b01176
      * Hamiltonian:
        H0-scaling (s, p, d)           1.850000    2.230000    2.230000
        zeta-weighting                 0.500000
      * Dispersion:
        s8                             2.700000
        a1                             0.520000
        a2                             5.000000
        s9                             5.000000
      * Repulsion:
        kExp                           1.500000    1.000000
        rExp                           1.000000
      * Coulomb:
        alpha                          2.000000
        third order                    shell-resolved
        anisotropic                    true
        a3                             3.000000
        a5                             4.000000
        cn-shift                       1.200000
        cn-exp                         4.000000
        max-rad                        5.000000


          ...................................................
          :                      SETUP                      :
          :.................................................:
          :  # basis functions                  42          :
          :  # atomic orbitals                  42          :
          :  # shells                           24          :
          :  # electrons                        52          :
          :  max. iterations                   250          :
          :  Hamiltonian                  GFN2-xTB          :
          :  restarted?                      false          :
          :  GBSA solvation                  false          :
          :  PC potential                    false          :
          :  electronic temp.          300.0000000     K    :
          :  accuracy                    1.0000000          :
          :  -> integral cutoff          0.2500000E+02      :
          :  -> integral neglect         0.1000000E-07      :
          :  -> SCF convergence          0.1000000E-05 Eh   :
          :  -> wf. convergence          0.1000000E-03 e    :
          :  Broyden damping             0.4000000          :
          :  net charge                          0          :
          :  unpaired electrons                  0          :
          ...................................................

 iter      E             dE          RMSdq      gap      omega  full diag
   1    -32.0383452 -0.320383E+02  0.530E+00    4.94       0.0  T
   2    -32.1025822 -0.642370E-01  0.266E+00    3.80       1.0  T
   3    -32.1104602 -0.787796E-02  0.178E+00    4.42       1.0  T
   4    -32.1210919 -0.106317E-01  0.240E-01    4.09       1.0  T
   5    -32.1214272 -0.335322E-03  0.886E-02    4.15       1.0  T
   6    -32.1214519 -0.246236E-04  0.354E-02    4.15       1.0  T
   7    -32.1214611 -0.925568E-05  0.145E-02    4.14       1.8  T
   8    -32.1214615 -0.393119E-06  0.607E-03    4.14       4.3  T
   9    -32.1214617 -0.157995E-06  0.290E-03    4.14       8.9  T
  10    -32.1214617 -0.707568E-07  0.735E-04    4.14      35.1  T
  11    -32.1214617 -0.140488E-08  0.259E-04    4.14      99.7  T

   *** convergence criteria satisfied after 11 iterations ***

         #    Occupation            Energy/Eh            Energy/eV
      -------------------------------------------------------------
         1        2.0000           -0.7439050             -20.2427
       ...           ...                  ...                  ...
        20        2.0000           -0.5051088             -13.7447
        21        2.0000           -0.4860324             -13.2256
        22        2.0000           -0.4806847             -13.0801
        23        2.0000           -0.4779526             -13.0058
        24        2.0000           -0.4475172             -12.1776
        25        2.0000           -0.4364972             -11.8777
        26        2.0000           -0.4325625             -11.7706 (HOMO)
        27                         -0.2803933              -7.6299 (LUMO)
        28                         -0.2707213              -7.3667
        29                         -0.0640577              -1.7431
        30                         -0.0505782              -1.3763
        31                          0.0297566               0.8097
       ...                                ...                  ...
        42                          0.4455273              12.1234
      -------------------------------------------------------------
                  HL-Gap            0.1521692 Eh            4.1407 eV
             Fermi-level           -0.3564779 Eh           -9.7003 eV

 SCC (total)                   0 d,  0 h,  0 min,  0.019 sec
 SCC setup                      ...        0 min,  0.001 sec (  5.263%)
 Dispersion                     ...        0 min,  0.000 sec (  0.000%)
 classical contributions        ...        0 min,  0.000 sec (  0.000%)
 integral evaluation            ...        0 min,  0.001 sec (  5.264%)
 iterations                     ...        0 min,  0.012 sec ( 63.157%)
 molecular gradient             ...        0 min,  0.002 sec ( 10.527%)
 printout                       ...        0 min,  0.002 sec ( 10.527%)

         :::::::::::::::::::::::::::::::::::::::::::::::::::::
         ::                     SUMMARY                     ::
         :::::::::::::::::::::::::::::::::::::::::::::::::::::
         :: total energy             -31.928003886643 Eh    ::
         :: gradient norm              0.192619247026 Eh/a0 ::
         :: HOMO-LUMO gap              4.140735850525 eV    ::
         ::.................................................::
         :: HOMO orbital eigv.       -11.770625989096 eV    ::
         :: LUMO orbital eigv.        -7.629890138571 eV    ::
         ::.................................................::
         :: SCC energy               -32.121422050973 Eh    ::
         :: -> isotropic ES            0.120638499798 Eh    ::
         :: -> anisotropic ES          0.001875894395 Eh    ::
         :: -> anisotropic XC         -0.004179702681 Eh    ::
         :: -> dispersion             -0.009880566529 Eh    ::
         :: repulsion energy           0.193418164330 Eh    ::
         :: add. restraining           0.000000000000 Eh    ::
         :: total charge               0.000000000000 e     ::
         ::.................................................::
         :: atomisation energy         4.246625426270 Eh    ::
         :::::::::::::::::::::::::::::::::::::::::::::::::::::

           -------------------------------------------------
          |                Property Printout                |
           -------------------------------------------------

    * Orbital Energies and Occupations

         #    Occupation            Energy/Eh            Energy/eV
      -------------------------------------------------------------
         1        2.0000           -0.7439050             -20.2427
       ...           ...                  ...                  ...
        14        2.0000           -0.5804931             -15.7960
        15        2.0000           -0.5703298             -15.5195
        16        2.0000           -0.5592559             -15.2181
        17        2.0000           -0.5309232             -14.4472
        18        2.0000           -0.5283272             -14.3765
        19        2.0000           -0.5100042             -13.8779
        20        2.0000           -0.5051088             -13.7447
        21        2.0000           -0.4860324             -13.2256
        22        2.0000           -0.4806847             -13.0801
        23        2.0000           -0.4779526             -13.0058
        24        2.0000           -0.4475172             -12.1776
        25        2.0000           -0.4364972             -11.8777
        26        2.0000           -0.4325625             -11.7706 (HOMO)
        27                         -0.2803933              -7.6299 (LUMO)
        28                         -0.2707213              -7.3667
        29                         -0.0640577              -1.7431
        30                         -0.0505782              -1.3763
        31                          0.0297566               0.8097
        32                          0.0690215               1.8782
        33                          0.0833555               2.2682
        34                          0.1132126               3.0807
        35                          0.1182601               3.2180
        36                          0.1301256               3.5409
        37                          0.1518664               4.1325
       ...                                ...                  ...
        42                          0.4455273              12.1234
      -------------------------------------------------------------
                  HL-Gap            0.1521692 Eh            4.1407 eV
             Fermi-level           -0.3564779 Eh           -9.7003 eV

     #   Z          covCN         q      C6AA      α(0)
     1   8 O        0.856    -0.407    21.825     6.264
     2   6 C        2.687     0.345    21.138     7.524
     3   8 O        1.647    -0.375    20.370     6.093
     4   6 C        3.798    -0.088    22.180     6.706
     5   6 C        3.726     0.117    18.768     6.186
     6   8 O        1.653    -0.408    21.014     6.188
     7   6 C        2.688     0.345    21.136     7.524
     8   8 O        0.856    -0.373    21.141     6.165
     9   8 O        1.647    -0.378    20.428     6.101
    10   1 H        0.796     0.335     0.627     1.244
    11   1 H        0.921     0.096     1.823     2.112
    12   1 H        0.921     0.090     1.879     2.144
    13   1 H        0.921     0.052     2.293     2.368
    14   1 H        0.801     0.309     0.695     1.310
    15   1 H        0.796     0.339     0.615     1.233

 Mol. C6AA /au·bohr⁶  :       2266.841253
 Mol. C8AA /au·bohr⁸  :      49859.987237
 Mol. α(0) /au        :         69.159313


Wiberg/Mayer (AO) data.
largest (>0.10) Wiberg bond orders for each atom

 ---------------------------------------------------------------------------
     #   Z sym  total        # sym  WBO       # sym  WBO       # sym  WBO
 ---------------------------------------------------------------------------
     1   8 O    2.017 --     2 C    1.752     3 O    0.176
     2   6 C    3.918 --     1 O    1.752     3 O    1.129     4 C    1.001
     3   8 O    2.197 --     2 C    1.129    10 H    0.862     1 O    0.176
     4   6 C    3.986 --     2 C    1.001    11 H    0.963    12 H    0.955
                             5 C    0.938
     5   6 C    3.966 --     6 O    1.004     7 C    0.969    13 H    0.957
                             4 C    0.938
     6   8 O    1.981 --     5 C    1.004    14 H    0.889
     7   6 C    3.922 --     8 O    1.782     9 O    1.127     5 C    0.969
     8   8 O    2.044 --     7 C    1.782     9 O    0.182
     9   8 O    2.193 --     7 C    1.127    15 H    0.859     8 O    0.182
    10   1 H    0.887 --     3 O    0.862
    11   1 H    0.991 --     4 C    0.963
    12   1 H    0.992 --     4 C    0.955
    13   1 H    0.997 --     5 C    0.957
    14   1 H    0.904 --     6 O    0.889
    15   1 H    0.885 --     9 O    0.859
 ---------------------------------------------------------------------------

Topologies differ in total number of bonds
Writing topology from bond orders to xtbtopo.mol

molecular dipole:
                 x           y           z       tot (Debye)
 q only:       -0.346       0.092      -0.191
   full:       -0.545       0.241      -0.365       1.776
molecular quadrupole (traceless):
                xx          xy          yy          xz          yz          zz
 q only:      -15.397       2.068      10.907      -6.895      -4.619       4.490
  q+dip:      -18.073       3.154      13.057      -9.520      -5.304       5.016
   full:      -18.332       2.336      13.303     -10.039      -5.062       5.029


           -------------------------------------------------
          | TOTAL ENERGY              -31.928003886643 Eh   |
          | GRADIENT NORM               0.192619247026 Eh/α |
          | HOMO-LUMO GAP               4.140735850525 eV   |
           -------------------------------------------------
########################################################################
[WARNING] Runtime exception occurred
-2- restart_readRestart: Dimension missmatch in restart file.
-1- restart_readRestart: Number of electron missmatch in restart file.
########################################################################

------------------------------------------------------------------------
 unit  open   action     filename
  129 false : read       dft_tmp\92.xyz
  129 false : read       dft_tmp\92.xyz
  129 false : read       dft_tmp\92.xyz
  129 false : read       C:\Users\nkapa\Downloads\xtb-6.7.1pre-windows-x86_64\xtb-6.7.1\share\xtb\param_gfn2-xtb.txt
  129 false : read       xtbrestart
  129 false : replaced   charges
  129 false : replaced   wbo
  129 false : replaced   xtbtopo.mol
  129 false : replaced   xtbrestart

------------------------------------------------------------------------
 * finished run on 2025/06/23 at 11:31:40.765     
------------------------------------------------------------------------
 total:
 * wall-time:     0 d,  0 h,  0 min,  0.061 sec
 *  cpu-time:     0 d,  0 h,  0 min,  0.312 sec
 * ratio c/w:     5.123 speedup
 SCF:
 * wall-time:     0 d,  0 h,  0 min,  0.019 sec
 *  cpu-time:     0 d,  0 h,  0 min,  0.172 sec
 * ratio c/w:     9.046 speedup

normal termination of xtb
