      -----------------------------------------------------------      
     |                   =====================                   |     
     |                           x T B                           |     
     |                   =====================                   |     
     |                         S. Grimme                         |     
     |          Mulliken Center for Theoretical Chemistry        |     
     |                    University of Bonn                     |     
      -----------------------------------------------------------      

   * xtb version 6.7.1pre (5071a88) compiled by 'Marcel@Raven' on 2024-07-23

   xtb is free software: you can redistribute it and/or modify it under
   the terms of the GNU Lesser General Public License as published by
   the Free Software Foundation, either version 3 of the License, or
   (at your option) any later version.
   
   xtb is distributed in the hope that it will be useful,
   but WITHOUT ANY WARRANTY; without even the implied warranty of
   MERCHANTABILITY or FITNESS FOR A PARTICULAR PURPOSE.  See the
   GNU Lesser General Public License for more details.
   
   Cite this work as:
   * C. Bannwarth, E. Caldeweyher, S. Ehlert, A. Hansen, P. Pracht,
     J. Seibert, S. Spicher, S. Grimme, WIREs Comput. Mol. Sci., 2020, 11,
     e01493. DOI: 10.1002/wcms.1493
   
   for GFN2-xTB:
   * C. Bannwarth, S. Ehlert and S. Grimme., J. Chem. Theory Comput., 2019,
     15, 1652-1671. DOI: 10.1021/acs.jctc.8b01176
   for GFN1-xTB:
   * S. Grimme, C. Bannwarth, P. Shushkov, J. Chem. Theory Comput., 2017,
     13, 1989-2009. DOI: 10.1021/acs.jctc.7b00118
   for GFN0-xTB:
   * P. Pracht, E. Caldeweyher, S. Ehlert, S. Grimme, ChemRxiv, 2019, preprint.
     DOI: 10.26434/chemrxiv.8326202.v1
   for GFN-FF:
   * S. Spicher and S. Grimme, Angew. Chem. Int. Ed., 2020, 59, 15665-15673.
     DOI: 10.1002/anie.202004239
   
   for ALPB and GBSA implicit solvation:
   * S. Ehlert, M. Stahn, S. Spicher, S. Grimme, J. Chem. Theory Comput.,
     2021, 17, 4250-4261. DOI: 10.1021/acs.jctc.1c00471
   
   for ddCOSMO and CPCM-X implicit solvation:
   * M. Stahn, S. Ehlert, S. Grimme, J. Phys. Chem. A,
     2023, XX, XXXX-XXXX. DOI: 10.1021/acs.jpca.3c04382
   
   for DFT-D4:
   * E. Caldeweyher, C. Bannwarth and S. Grimme, J. Chem. Phys., 2017,
     147, 034112. DOI: 10.1063/1.4993215
   * E. Caldeweyher, S. Ehlert, A. Hansen, H. Neugebauer, S. Spicher,
     C. Bannwarth and S. Grimme, J. Chem. Phys., 2019, 150, 154122.
     DOI: 10.1063/1.5090222
   * E. Caldeweyher, J.-M. Mewes, S. Ehlert and S. Grimme, Phys. Chem. Chem. Phys.
     2020, 22, 8499-8512. DOI: 10.1039/D0CP00502A
   
   for sTDA-xTB:
   * S. Grimme and C. Bannwarth, J. Chem. Phys., 2016, 145, 054103.
     DOI: 10.1063/1.4959605
   
   in the mass-spec context:
   * V. Asgeirsson, C. Bauer and S. Grimme, Chem. Sci., 2017, 8, 4879.
     DOI: 10.1039/c7sc00601b
   * J. Koopman and S. Grimme, ACS Omega 2019, 4, 12, 15120-15133.
     DOI: 10.1021/acsomega.9b02011
   
   for metadynamics refer to:
   * S. Grimme, J. Chem. Theory Comput., 2019, 155, 2847-2862
     DOI: 10.1021/acs.jctc.9b00143
   
   for SPH calculations refer to:
   * S. Spicher and S. Grimme, J. Chem. Theory Comput., 2021, 17, 1701-1714
     DOI: 10.1021/acs.jctc.0c01306
   
   for ONIOM refer to:
   * C. Plett, A. Katbashev, S. Ehlert, S. Grimme, M. Bursch,
     Phys. Chem. Chem. Phys., 2023, 25, 17860-17868. DOI: 10.1039/D3CP02178E
   
   for DIPRO refer to:
   * J. Kohn, N. Gildemeister, S. Grimme, D. Fazzi, A. Hansen,
     J. Chem. Phys., 2023, just accepted.
   
   for PTB refer to:
   * S. Grimme, M. Mueller, A. Hansen, J. Chem. Phys., 2023, 158, 124111.
     DOI: 10.1063/5.0137838
   
   with help from (in alphabetical order)
   P. Atkinson, C. Bannwarth, F. Bohle, G. Brandenburg, E. Caldeweyher
   M. Checinski, S. Dohm, S. Ehlert, S. Ehrlich, I. Gerasimov, C. Hölzer
   A. Katbashev, J. Kohn, J. Koopman, C. Lavigne, S. Lehtola, F. März, M. Müller,
   F. Musil, H. Neugebauer, J. Pisarek, C. Plett, P. Pracht, F. Pultar,
   J. Seibert, P. Shushkov, S. Spicher, M. Stahn, M. Steiner, T. Strunk,
   J. Stückrath, T. Rose, and J. Unsleber
   
 * started run on 2025/06/23 at 11:31:41.614     
$$$$$$$$$$$$$$$$$$$$$$$$$$$$$$$$$$$$$$$$$$$$$$$$$$$$$$$$$$$$$$$$$$$$$$$$
 CONSTRAINTS & SCANS: DEBUG SECTION
$$$$$$$$$$$$$$$$$$$$$$$$$$$$$$$$$$$$$$$$$$$$$$$$$$$$$$$$$$$$$$$$$$$$$$$$
   ID    Z sym.   atoms
    1    6 C      1-4
    2    8 O      5
    3    1 H      6-15
$$$$$$$$$$$$$$$$$$$$$$$$$$$$$$$$$$$$$$$$$$$$$$$$$$$$$$$$$$$$$$$$$$$$$$$$

           -------------------------------------------------
          |                Calculation Setup                |
           -------------------------------------------------

          program call               : C:\Users\nkapa\Downloads\xtb-6.7.1pre-windows-x86_64\xtb-6.7.1\bin\xtb.EXE dft_tmp\99.xyz --gfn2 --parallel 8 --verbose
          coordinate file            : dft_tmp\99.xyz
          xtbhome directory          : C:\Users\nkapa\AppData\Roaming\SPB_Data
          path for xtb               : C:\Users\nkapa\Downloads\xtb-6.7.1pre-windows-x86_64\xtb-6.7.1\share\xtb
          xcontrol input file        : dft_tmp\99.xyz
          omp threads                :                     8


           -------------------------------------------------
          |                 G F N 2 - x T B                 |
           -------------------------------------------------

        Reference                      10.1021/acs.jctc.8b01176
      * Hamiltonian:
        H0-scaling (s, p, d)           1.850000    2.230000    2.230000
        zeta-weighting                 0.500000
      * Dispersion:
        s8                             2.700000
        a1                             0.520000
        a2                             5.000000
        s9                             5.000000
      * Repulsion:
        kExp                           1.500000    1.000000
        rExp                           1.000000
      * Coulomb:
        alpha                          2.000000
        third order                    shell-resolved
        anisotropic                    true
        a3                             3.000000
        a5                             4.000000
        cn-shift                       1.200000
        cn-exp                         4.000000
        max-rad                        5.000000


          ...................................................
          :                      SETUP                      :
          :.................................................:
          :  # basis functions                  30          :
          :  # atomic orbitals                  30          :
          :  # shells                           20          :
          :  # electrons                        32          :
          :  max. iterations                   250          :
          :  Hamiltonian                  GFN2-xTB          :
          :  restarted?                      false          :
          :  GBSA solvation                  false          :
          :  PC potential                    false          :
          :  electronic temp.          300.0000000     K    :
          :  accuracy                    1.0000000          :
          :  -> integral cutoff          0.2500000E+02      :
          :  -> integral neglect         0.1000000E-07      :
          :  -> SCF convergence          0.1000000E-05 Eh   :
          :  -> wf. convergence          0.1000000E-03 e    :
          :  Broyden damping             0.4000000          :
          :  net charge                          0          :
          :  unpaired electrons                  0          :
          ...................................................

 iter      E             dE          RMSdq      gap      omega  full diag
   1    -17.8792007 -0.178792E+02  0.294E+00   11.97       0.0  T
   2    -17.9129788 -0.337782E-01  0.165E+00   11.78       1.0  T
   3    -17.9138707 -0.891933E-03  0.741E-01   11.84       1.0  T
   4    -17.9144272 -0.556450E-03  0.204E-01   11.81       1.0  T
   5    -17.9145992 -0.171966E-03  0.724E-02   11.83       1.0  T
   6    -17.9146007 -0.149206E-05  0.979E-03   11.84       2.6  T
   7    -17.9146008 -0.172714E-06  0.302E-03   11.84       8.6  T
   8    -17.9146008 -0.174493E-07  0.141E-03   11.84      18.3  T
   9    -17.9146009 -0.305965E-08  0.249E-04   11.84     103.7  T
  10    -17.9146009 -0.235627E-09  0.939E-05   11.84     274.9  T

   *** convergence criteria satisfied after 10 iterations ***

         #    Occupation            Energy/Eh            Energy/eV
      -------------------------------------------------------------
         1        2.0000           -0.6803093             -18.5122
       ...           ...                  ...                  ...
        10        2.0000           -0.4727060             -12.8630
        11        2.0000           -0.4589488             -12.4886
        12        2.0000           -0.4557694             -12.4021
        13        2.0000           -0.4522664             -12.3068
        14        2.0000           -0.4485520             -12.2057
        15        2.0000           -0.4301490             -11.7049
        16        2.0000           -0.4026504             -10.9567 (HOMO)
        17                          0.0325029               0.8844 (LUMO)
        18                          0.0710899               1.9345
        19                          0.0802641               2.1841
        20                          0.0906135               2.4657
        21                          0.1279369               3.4813
       ...                                ...                  ...
        30                          0.2608938               7.0993
      -------------------------------------------------------------
                  HL-Gap            0.4351533 Eh           11.8411 eV
             Fermi-level           -0.1850737 Eh           -5.0361 eV

 SCC (total)                   0 d,  0 h,  0 min,  0.010 sec
 SCC setup                      ...        0 min,  0.001 sec (  9.999%)
 Dispersion                     ...        0 min,  0.000 sec (  0.000%)
 classical contributions        ...        0 min,  0.000 sec (  0.000%)
 integral evaluation            ...        0 min,  0.000 sec (  0.000%)
 iterations                     ...        0 min,  0.007 sec ( 70.000%)
 molecular gradient             ...        0 min,  0.002 sec ( 20.001%)
 printout                       ...        0 min,  0.000 sec (  0.000%)

         :::::::::::::::::::::::::::::::::::::::::::::::::::::
         ::                     SUMMARY                     ::
         :::::::::::::::::::::::::::::::::::::::::::::::::::::
         :: total energy             -17.727705270281 Eh    ::
         :: gradient norm              0.058235639028 Eh/a0 ::
         :: HOMO-LUMO gap             11.841123133651 eV    ::
         ::.................................................::
         :: HOMO orbital eigv.       -10.956673838362 eV    ::
         :: LUMO orbital eigv.         0.884449295289 eV    ::
         ::.................................................::
         :: SCC energy               -17.914586758560 Eh    ::
         :: -> isotropic ES            0.028414280058 Eh    ::
         :: -> anisotropic ES          0.005718804210 Eh    ::
         :: -> anisotropic XC          0.007130125347 Eh    ::
         :: -> dispersion             -0.007661851118 Eh    ::
         :: repulsion energy           0.186881488280 Eh    ::
         :: add. restraining           0.000000000000 Eh    ::
         :: total charge              -0.000000000000 e     ::
         ::.................................................::
         :: atomisation energy         3.535566968963 Eh    ::
         :::::::::::::::::::::::::::::::::::::::::::::::::::::

           -------------------------------------------------
          |                Property Printout                |
           -------------------------------------------------

    * Orbital Energies and Occupations

         #    Occupation            Energy/Eh            Energy/eV
      -------------------------------------------------------------
         1        2.0000           -0.6803093             -18.5122
       ...           ...                  ...                  ...
         4        2.0000           -0.5932849             -16.1441
         5        2.0000           -0.5689195             -15.4811
         6        2.0000           -0.5353298             -14.5671
         7        2.0000           -0.5166576             -14.0590
         8        2.0000           -0.5109112             -13.9026
         9        2.0000           -0.4846296             -13.1874
        10        2.0000           -0.4727060             -12.8630
        11        2.0000           -0.4589488             -12.4886
        12        2.0000           -0.4557694             -12.4021
        13        2.0000           -0.4522664             -12.3068
        14        2.0000           -0.4485520             -12.2057
        15        2.0000           -0.4301490             -11.7049
        16        2.0000           -0.4026504             -10.9567 (HOMO)
        17                          0.0325029               0.8844 (LUMO)
        18                          0.0710899               1.9345
        19                          0.0802641               2.1841
        20                          0.0906135               2.4657
        21                          0.1279369               3.4813
        22                          0.1548419               4.2135
        23                          0.1578161               4.2944
        24                          0.1662856               4.5249
        25                          0.1867274               5.0811
        26                          0.1940214               5.2796
        27                          0.2099227               5.7123
       ...                                ...                  ...
        30                          0.2608938               7.0993
      -------------------------------------------------------------
                  HL-Gap            0.4351533 Eh           11.8411 eV
             Fermi-level           -0.1850737 Eh           -5.0361 eV

     #   Z          covCN         q      C6AA      α(0)
     1   6 C        3.744    -0.116    22.787     6.810
     2   6 C        3.772     0.156    18.117     6.065
     3   6 C        3.744    -0.116    22.787     6.810
     4   6 C        3.746    -0.108    22.632     6.786
     5   8 O        1.652    -0.444    21.732     6.293
     6   1 H        0.921     0.035     2.518     2.482
     7   1 H        0.921     0.029     2.602     2.523
     8   1 H        0.921     0.044     2.400     2.423
     9   1 H        0.921     0.035     2.518     2.482
    10   1 H        0.921     0.029     2.602     2.523
    11   1 H        0.921     0.044     2.400     2.423
    12   1 H        0.921     0.035     2.514     2.480
    13   1 H        0.921     0.048     2.352     2.398
    14   1 H        0.921     0.048     2.352     2.398
    15   1 H        0.801     0.282     0.778     1.385

 Mol. C6AA /au·bohr⁶  :       1456.881884
 Mol. C8AA /au·bohr⁸  :      29819.790736
 Mol. α(0) /au        :         56.279808


Wiberg/Mayer (AO) data.
largest (>0.10) Wiberg bond orders for each atom

 ---------------------------------------------------------------------------
     #   Z sym  total        # sym  WBO       # sym  WBO       # sym  WBO
 ---------------------------------------------------------------------------
     1   6 C    3.995 --     2 C    0.987     6 H    0.986     8 H    0.985
                             7 H    0.985
     2   6 C    3.953 --     4 C    0.993     1 C    0.987     3 C    0.987
                             5 O    0.983
     3   6 C    3.995 --     2 C    0.987     9 H    0.986    11 H    0.985
                            10 H    0.985
     4   6 C    3.995 --     2 C    0.993    12 H    0.986    13 H    0.985
                            14 H    0.985
     5   8 O    1.965 --     2 C    0.983    15 H    0.899
     6   1 H    0.999 --     1 C    0.986
     7   1 H    0.999 --     1 C    0.985
     8   1 H    0.998 --     1 C    0.985
     9   1 H    0.999 --     3 C    0.986
    10   1 H    0.999 --     3 C    0.985
    11   1 H    0.998 --     3 C    0.985
    12   1 H    0.999 --     4 C    0.986
    13   1 H    0.998 --     4 C    0.985
    14   1 H    0.998 --     4 C    0.985
    15   1 H    0.920 --     5 O    0.899
 ---------------------------------------------------------------------------

Topologies differ in total number of bonds
Writing topology from bond orders to xtbtopo.mol

molecular dipole:
                 x           y           z       tot (Debye)
 q only:       -0.348      -0.104      -0.312
   full:       -0.534      -0.230      -0.408       1.805
molecular quadrupole (traceless):
                xx          xy          yy          xz          yz          zz
 q only:       -0.711       1.074       2.224      -2.058      -0.845      -1.512
  q+dip:       -0.890       1.420       3.081      -2.997      -0.977      -2.191
   full:       -0.980       1.535       3.126      -2.884      -1.167      -2.146


           -------------------------------------------------
          | TOTAL ENERGY              -17.727705270281 Eh   |
          | GRADIENT NORM               0.058235639028 Eh/α |
          | HOMO-LUMO GAP              11.841123133651 eV   |
           -------------------------------------------------
########################################################################
[WARNING] Runtime exception occurred
-2- restart_readRestart: Dimension missmatch in restart file.
-1- restart_readRestart: Number of electron missmatch in restart file.
########################################################################

------------------------------------------------------------------------
 unit  open   action     filename
  129 false : read       dft_tmp\99.xyz
  129 false : read       dft_tmp\99.xyz
  129 false : read       dft_tmp\99.xyz
  129 false : read       C:\Users\nkapa\Downloads\xtb-6.7.1pre-windows-x86_64\xtb-6.7.1\share\xtb\param_gfn2-xtb.txt
  129 false : read       xtbrestart
  129 false : replaced   charges
  129 false : replaced   wbo
  129 false : replaced   xtbtopo.mol
  129 false : replaced   xtbrestart

------------------------------------------------------------------------
 * finished run on 2025/06/23 at 11:31:41.666     
------------------------------------------------------------------------
 total:
 * wall-time:     0 d,  0 h,  0 min,  0.051 sec
 *  cpu-time:     0 d,  0 h,  0 min,  0.250 sec
 * ratio c/w:     4.902 speedup
 SCF:
 * wall-time:     0 d,  0 h,  0 min,  0.011 sec
 *  cpu-time:     0 d,  0 h,  0 min,  0.000 sec
 * ratio c/w:     0.000 speedup

normal termination of xtb
