32

C -3.692492 -0.119304 -1.142949
C -2.469569 -0.240417 -1.805117
C -1.260502 -0.141796 -1.094295
C -1.290625 0.078458 0.299132
C -2.529456 0.198662 0.955187
C -3.727906 0.106832 0.236865
S -5.271491 0.246251 1.072165
O -5.140000 1.194448 2.230760
O -6.316972 0.776079 0.131374
O -5.740340 -1.264929 1.635067
C -0.021967 0.179762 1.059021
O -0.048547 0.375865 2.305360
C 1.277849 0.051834 0.358095
C 1.307138 -0.168430 -1.035348
C 0.038892 -0.270255 -1.795214
O 0.065465 -0.466716 -3.041491
C 2.545244 -0.292444 -1.689986
C 3.738744 -0.196375 -0.972346
C 3.715483 0.029674 0.407744
C 2.487497 0.146677 1.070354
S 5.221622 0.137536 1.313134
O 5.057300 1.090531 2.463570
O 6.320500 0.643035 0.421072
O 5.631443 -1.382284 1.898401
Na 0.000000 0.000000 0.000000
Na 0.000000 0.000000 0.000000
H -4.611776 -0.204362 -1.708306
H -2.471049 -0.413157 -2.874068
H -2.565440 0.361752 2.025179
H 2.592191 -0.465707 -2.757822
H 4.681032 -0.300753 -1.494976
H 2.477733 0.309532 2.140944
