      -----------------------------------------------------------      
     |                   =====================                   |     
     |                           x T B                           |     
     |                   =====================                   |     
     |                         S. Grimme                         |     
     |          Mulliken Center for Theoretical Chemistry        |     
     |                    University of Bonn                     |     
      -----------------------------------------------------------      

   * xtb version 6.7.1pre (5071a88) compiled by 'Marcel@Raven' on 2024-07-23

   xtb is free software: you can redistribute it and/or modify it under
   the terms of the GNU Lesser General Public License as published by
   the Free Software Foundation, either version 3 of the License, or
   (at your option) any later version.
   
   xtb is distributed in the hope that it will be useful,
   but WITHOUT ANY WARRANTY; without even the implied warranty of
   MERCHANTABILITY or FITNESS FOR A PARTICULAR PURPOSE.  See the
   GNU Lesser General Public License for more details.
   
   Cite this work as:
   * C. Bannwarth, E. Caldeweyher, S. Ehlert, A. Hansen, P. Pracht,
     J. Seibert, S. Spicher, S. Grimme, WIREs Comput. Mol. Sci., 2020, 11,
     e01493. DOI: 10.1002/wcms.1493
   
   for GFN2-xTB:
   * C. Bannwarth, S. Ehlert and S. Grimme., J. Chem. Theory Comput., 2019,
     15, 1652-1671. DOI: 10.1021/acs.jctc.8b01176
   for GFN1-xTB:
   * S. Grimme, C. Bannwarth, P. Shushkov, J. Chem. Theory Comput., 2017,
     13, 1989-2009. DOI: 10.1021/acs.jctc.7b00118
   for GFN0-xTB:
   * P. Pracht, E. Caldeweyher, S. Ehlert, S. Grimme, ChemRxiv, 2019, preprint.
     DOI: 10.26434/chemrxiv.8326202.v1
   for GFN-FF:
   * S. Spicher and S. Grimme, Angew. Chem. Int. Ed., 2020, 59, 15665-15673.
     DOI: 10.1002/anie.202004239
   
   for ALPB and GBSA implicit solvation:
   * S. Ehlert, M. Stahn, S. Spicher, S. Grimme, J. Chem. Theory Comput.,
     2021, 17, 4250-4261. DOI: 10.1021/acs.jctc.1c00471
   
   for ddCOSMO and CPCM-X implicit solvation:
   * M. Stahn, S. Ehlert, S. Grimme, J. Phys. Chem. A,
     2023, XX, XXXX-XXXX. DOI: 10.1021/acs.jpca.3c04382
   
   for DFT-D4:
   * E. Caldeweyher, C. Bannwarth and S. Grimme, J. Chem. Phys., 2017,
     147, 034112. DOI: 10.1063/1.4993215
   * E. Caldeweyher, S. Ehlert, A. Hansen, H. Neugebauer, S. Spicher,
     C. Bannwarth and S. Grimme, J. Chem. Phys., 2019, 150, 154122.
     DOI: 10.1063/1.5090222
   * E. Caldeweyher, J.-M. Mewes, S. Ehlert and S. Grimme, Phys. Chem. Chem. Phys.
     2020, 22, 8499-8512. DOI: 10.1039/D0CP00502A
   
   for sTDA-xTB:
   * S. Grimme and C. Bannwarth, J. Chem. Phys., 2016, 145, 054103.
     DOI: 10.1063/1.4959605
   
   in the mass-spec context:
   * V. Asgeirsson, C. Bauer and S. Grimme, Chem. Sci., 2017, 8, 4879.
     DOI: 10.1039/c7sc00601b
   * J. Koopman and S. Grimme, ACS Omega 2019, 4, 12, 15120-15133.
     DOI: 10.1021/acsomega.9b02011
   
   for metadynamics refer to:
   * S. Grimme, J. Chem. Theory Comput., 2019, 155, 2847-2862
     DOI: 10.1021/acs.jctc.9b00143
   
   for SPH calculations refer to:
   * S. Spicher and S. Grimme, J. Chem. Theory Comput., 2021, 17, 1701-1714
     DOI: 10.1021/acs.jctc.0c01306
   
   for ONIOM refer to:
   * C. Plett, A. Katbashev, S. Ehlert, S. Grimme, M. Bursch,
     Phys. Chem. Chem. Phys., 2023, 25, 17860-17868. DOI: 10.1039/D3CP02178E
   
   for DIPRO refer to:
   * J. Kohn, N. Gildemeister, S. Grimme, D. Fazzi, A. Hansen,
     J. Chem. Phys., 2023, just accepted.
   
   for PTB refer to:
   * S. Grimme, M. Mueller, A. Hansen, J. Chem. Phys., 2023, 158, 124111.
     DOI: 10.1063/5.0137838
   
   with help from (in alphabetical order)
   P. Atkinson, C. Bannwarth, F. Bohle, G. Brandenburg, E. Caldeweyher
   M. Checinski, S. Dohm, S. Ehlert, S. Ehrlich, I. Gerasimov, C. Hölzer
   A. Katbashev, J. Kohn, J. Koopman, C. Lavigne, S. Lehtola, F. März, M. Müller,
   F. Musil, H. Neugebauer, J. Pisarek, C. Plett, P. Pracht, F. Pultar,
   J. Seibert, P. Shushkov, S. Spicher, M. Stahn, M. Steiner, T. Strunk,
   J. Stückrath, T. Rose, and J. Unsleber
   
 * started run on 2025/06/25 at 12:07:30.399     
$$$$$$$$$$$$$$$$$$$$$$$$$$$$$$$$$$$$$$$$$$$$$$$$$$$$$$$$$$$$$$$$$$$$$$$$
 CONSTRAINTS & SCANS: DEBUG SECTION
$$$$$$$$$$$$$$$$$$$$$$$$$$$$$$$$$$$$$$$$$$$$$$$$$$$$$$$$$$$$$$$$$$$$$$$$
   ID    Z sym.   atoms
    1    6 C      1, 3
    2    8 O      2, 4
    3    7 N      5
    4    1 H      6-10
$$$$$$$$$$$$$$$$$$$$$$$$$$$$$$$$$$$$$$$$$$$$$$$$$$$$$$$$$$$$$$$$$$$$$$$$

           -------------------------------------------------
          |                Calculation Setup                |
           -------------------------------------------------

          program call               : C:\Users\nkapa\Downloads\xtb-6.7.1pre-windows-x86_64\xtb-6.7.1\bin\xtb.EXE dft_tmp\mol_571.xyz --gfn2 --parallel 8 --verbose
          coordinate file            : dft_tmp\mol_571.xyz
          xtbhome directory          : C:\Users\nkapa\AppData\Roaming\SPB_Data
          path for xtb               : C:\Users\nkapa\Downloads\xtb-6.7.1pre-windows-x86_64\xtb-6.7.1\share\xtb
          xcontrol input file        : dft_tmp\mol_571.xyz
          omp threads                :                     8


           -------------------------------------------------
          |                 G F N 2 - x T B                 |
           -------------------------------------------------

        Reference                      10.1021/acs.jctc.8b01176
      * Hamiltonian:
        H0-scaling (s, p, d)           1.850000    2.230000    2.230000
        zeta-weighting                 0.500000
      * Dispersion:
        s8                             2.700000
        a1                             0.520000
        a2                             5.000000
        s9                             5.000000
      * Repulsion:
        kExp                           1.500000    1.000000
        rExp                           1.000000
      * Coulomb:
        alpha                          2.000000
        third order                    shell-resolved
        anisotropic                    true
        a3                             3.000000
        a5                             4.000000
        cn-shift                       1.200000
        cn-exp                         4.000000
        max-rad                        5.000000


          ...................................................
          :                      SETUP                      :
          :.................................................:
          :  # basis functions                  25          :
          :  # atomic orbitals                  25          :
          :  # shells                           15          :
          :  # electrons                        30          :
          :  max. iterations                   250          :
          :  Hamiltonian                  GFN2-xTB          :
          :  restarted?                      false          :
          :  GBSA solvation                  false          :
          :  PC potential                    false          :
          :  electronic temp.          300.0000000     K    :
          :  accuracy                    1.0000000          :
          :  -> integral cutoff          0.2500000E+02      :
          :  -> integral neglect         0.1000000E-07      :
          :  -> SCF convergence          0.1000000E-05 Eh   :
          :  -> wf. convergence          0.1000000E-03 e    :
          :  Broyden damping             0.4000000          :
          :  net charge                          0          :
          :  unpaired electrons                  0          :
          ...................................................

 iter      E             dE          RMSdq      gap      omega  full diag
   1    -17.9400889 -0.179401E+02  0.532E+00    4.74       0.0  T
   2    -18.0015890 -0.615001E-01  0.258E+00    5.05       1.0  T
   3    -18.0031010 -0.151201E-02  0.133E+00    5.35       1.0  T
   4    -18.0034600 -0.359004E-03  0.235E-01    5.17       1.0  T
   5    -18.0037731 -0.313158E-03  0.110E-01    5.25       1.0  T
   6    -18.0037781 -0.500237E-05  0.454E-02    5.25       1.0  T
   7    -18.0037787 -0.547170E-06  0.922E-03    5.25       3.4  T
   8    -18.0037789 -0.178444E-06  0.259E-03    5.25      12.2  T
   9    -18.0037789 -0.282644E-08  0.149E-03    5.25      21.2  T
  10    -18.0037789 -0.165727E-07  0.258E-04    5.25     122.6  T
  11    -18.0037789 -0.151811E-09  0.124E-04    5.25     256.0  T

   *** convergence criteria satisfied after 11 iterations ***

         #    Occupation            Energy/Eh            Energy/eV
      -------------------------------------------------------------
         1        2.0000           -0.7273831             -19.7931
       ...           ...                  ...                  ...
         9        2.0000           -0.5352536             -14.5650
        10        2.0000           -0.5101880             -13.8829
        11        2.0000           -0.5094020             -13.8615
        12        2.0000           -0.4678220             -12.7301
        13        2.0000           -0.4371394             -11.8952
        14        2.0000           -0.4199754             -11.4281
        15        2.0000           -0.4152269             -11.2989 (HOMO)
        16                         -0.2222676              -6.0482 (LUMO)
        17                         -0.0869398              -2.3658
        18                          0.0106998               0.2912
        19                          0.1076079               2.9282
        20                          0.1174625               3.1963
       ...                                ...                  ...
        25                          0.4739910              12.8980
      -------------------------------------------------------------
                  HL-Gap            0.1929593 Eh            5.2507 eV
             Fermi-level           -0.3187473 Eh           -8.6736 eV

 SCC (total)                   0 d,  0 h,  0 min,  0.004 sec
 SCC setup                      ...        0 min,  0.000 sec (  0.000%)
 Dispersion                     ...        0 min,  0.000 sec (  0.000%)
 classical contributions        ...        0 min,  0.000 sec (  0.000%)
 integral evaluation            ...        0 min,  0.001 sec ( 24.999%)
 iterations                     ...        0 min,  0.003 sec ( 75.001%)
 molecular gradient             ...        0 min,  0.000 sec (  0.000%)
 printout                       ...        0 min,  0.000 sec (  0.000%)

         :::::::::::::::::::::::::::::::::::::::::::::::::::::
         ::                     SUMMARY                     ::
         :::::::::::::::::::::::::::::::::::::::::::::::::::::
         :: total energy             -17.879777882580 Eh    ::
         :: gradient norm              0.121131978542 Eh/a0 ::
         :: HOMO-LUMO gap              5.250690118508 eV    ::
         ::.................................................::
         :: HOMO orbital eigv.       -11.298900217676 eV    ::
         :: LUMO orbital eigv.        -6.048210099167 eV    ::
         ::.................................................::
         :: SCC energy               -18.003777886269 Eh    ::
         :: -> isotropic ES            0.060270634356 Eh    ::
         :: -> anisotropic ES          0.001837489246 Eh    ::
         :: -> anisotropic XC          0.001938790903 Eh    ::
         :: -> dispersion             -0.004172814132 Eh    ::
         :: repulsion energy           0.124000003689 Eh    ::
         :: add. restraining           0.000000000000 Eh    ::
         :: total charge              -0.000000000000 e     ::
         ::.................................................::
         :: atomisation energy         2.604343106429 Eh    ::
         :::::::::::::::::::::::::::::::::::::::::::::::::::::

           -------------------------------------------------
          |                Property Printout                |
           -------------------------------------------------

    * Orbital Energies and Occupations

         #    Occupation            Energy/Eh            Energy/eV
      -------------------------------------------------------------
         1        2.0000           -0.7273831             -19.7931
       ...           ...                  ...                  ...
         3        2.0000           -0.6675148             -18.1640
         4        2.0000           -0.6369347             -17.3319
         5        2.0000           -0.5959741             -16.2173
         6        2.0000           -0.5801650             -15.7871
         7        2.0000           -0.5707655             -15.5313
         8        2.0000           -0.5586574             -15.2018
         9        2.0000           -0.5352536             -14.5650
        10        2.0000           -0.5101880             -13.8829
        11        2.0000           -0.5094020             -13.8615
        12        2.0000           -0.4678220             -12.7301
        13        2.0000           -0.4371394             -11.8952
        14        2.0000           -0.4199754             -11.4281
        15        2.0000           -0.4152269             -11.2989 (HOMO)
        16                         -0.2222676              -6.0482 (LUMO)
        17                         -0.0869398              -2.3658
        18                          0.0106998               0.2912
        19                          0.1076079               2.9282
        20                          0.1174625               3.1963
        21                          0.1496065               4.0710
        22                          0.1724522               4.6927
        23                          0.1801628               4.9025
        24                          0.2550301               6.9397
        25                          0.4739910              12.8980
      -------------------------------------------------------------
                  HL-Gap            0.1929593 Eh            5.2507 eV
             Fermi-level           -0.3187473 Eh           -8.6736 eV

     #   Z          covCN         q      C6AA      α(0)
     1   6 C        3.619     0.043    20.312     6.499
     2   8 O        1.700    -0.281    18.663     5.833
     3   6 C        2.621     0.387    20.459     7.398
     4   8 O        0.856    -0.455    22.810     6.403
     5   7 N        2.624    -0.274    27.082     7.729
     6   1 H        0.922     0.060     2.198     2.319
     7   1 H        0.922     0.068     2.113     2.273
     8   1 H        0.922     0.060     2.198     2.319
     9   1 H        0.858     0.207     1.072     1.622
    10   1 H        0.858     0.185     1.187     1.707

 Mol. C6AA /au·bohr⁶  :        887.158659
 Mol. C8AA /au·bohr⁸  :      18561.372500
 Mol. α(0) /au        :         44.101725


Wiberg/Mayer (AO) data.
largest (>0.10) Wiberg bond orders for each atom

 ---------------------------------------------------------------------------
     #   Z sym  total        # sym  WBO       # sym  WBO       # sym  WBO
 ---------------------------------------------------------------------------
     1   6 C    3.923 --     7 H    0.978     8 H    0.977     6 H    0.977
                             2 O    0.966
     2   8 O    2.249 --     3 C    1.069     1 C    0.966     4 O    0.133
     3   6 C    3.938 --     4 O    1.646     5 N    1.194     2 O    1.069
     4   8 O    1.970 --     3 C    1.646     5 N    0.165     2 O    0.133
     5   7 N    3.314 --     3 C    1.194    10 H    0.949     9 H    0.941
                             4 O    0.165
     6   1 H    0.996 --     1 C    0.977
     7   1 H    0.995 --     1 C    0.978
     8   1 H    0.996 --     1 C    0.977
     9   1 H    0.957 --     5 N    0.941
    10   1 H    0.966 --     5 N    0.949
 ---------------------------------------------------------------------------

Topologies differ in total number of bonds
Writing topology from bond orders to xtbtopo.mol

molecular dipole:
                 x           y           z       tot (Debye)
 q only:        0.286       0.519      -0.824
   full:        0.385       0.601      -0.965       3.051
molecular quadrupole (traceless):
                xx          xy          yy          xz          yz          zz
 q only:        9.924      -0.626      -4.159      -1.607       2.303      -5.764
  q+dip:       10.525      -0.637      -4.169      -1.615       3.029      -6.355
   full:       10.631      -0.523      -4.138      -1.759       3.297      -6.494


           -------------------------------------------------
          | TOTAL ENERGY              -17.879777882580 Eh   |
          | GRADIENT NORM               0.121131978542 Eh/α |
          | HOMO-LUMO GAP               5.250690118508 eV   |
           -------------------------------------------------
########################################################################
[WARNING] Runtime exception occurred
-2- restart_readRestart: Dimension missmatch in restart file.
-1- restart_readRestart: Number of electron missmatch in restart file.
########################################################################

------------------------------------------------------------------------
 unit  open   action     filename
  129 false : read       dft_tmp\mol_571.xyz
  129 false : read       dft_tmp\mol_571.xyz
  129 false : read       dft_tmp\mol_571.xyz
  129 false : read       C:\Users\nkapa\Downloads\xtb-6.7.1pre-windows-x86_64\xtb-6.7.1\share\xtb\param_gfn2-xtb.txt
  129 false : read       xtbrestart
  129 false : replaced   charges
  129 false : replaced   wbo
  129 false : replaced   xtbtopo.mol
  129 false : replaced   xtbrestart

------------------------------------------------------------------------
 * finished run on 2025/06/25 at 12:07:30.491     
------------------------------------------------------------------------
 total:
 * wall-time:     0 d,  0 h,  0 min,  0.091 sec
 *  cpu-time:     0 d,  0 h,  0 min,  0.094 sec
 * ratio c/w:     1.030 speedup
 SCF:
 * wall-time:     0 d,  0 h,  0 min,  0.005 sec
 *  cpu-time:     0 d,  0 h,  0 min,  0.094 sec
 * ratio c/w:    18.750 speedup

normal termination of xtb
