      -----------------------------------------------------------      
     |                   =====================                   |     
     |                           x T B                           |     
     |                   =====================                   |     
     |                         S. Grimme                         |     
     |          Mulliken Center for Theoretical Chemistry        |     
     |                    University of Bonn                     |     
      -----------------------------------------------------------      

   * xtb version 6.7.1pre (5071a88) compiled by 'Marcel@Raven' on 2024-07-23

   xtb is free software: you can redistribute it and/or modify it under
   the terms of the GNU Lesser General Public License as published by
   the Free Software Foundation, either version 3 of the License, or
   (at your option) any later version.
   
   xtb is distributed in the hope that it will be useful,
   but WITHOUT ANY WARRANTY; without even the implied warranty of
   MERCHANTABILITY or FITNESS FOR A PARTICULAR PURPOSE.  See the
   GNU Lesser General Public License for more details.
   
   Cite this work as:
   * C. Bannwarth, E. Caldeweyher, S. Ehlert, A. Hansen, P. Pracht,
     J. Seibert, S. Spicher, S. Grimme, WIREs Comput. Mol. Sci., 2020, 11,
     e01493. DOI: 10.1002/wcms.1493
   
   for GFN2-xTB:
   * C. Bannwarth, S. Ehlert and S. Grimme., J. Chem. Theory Comput., 2019,
     15, 1652-1671. DOI: 10.1021/acs.jctc.8b01176
   for GFN1-xTB:
   * S. Grimme, C. Bannwarth, P. Shushkov, J. Chem. Theory Comput., 2017,
     13, 1989-2009. DOI: 10.1021/acs.jctc.7b00118
   for GFN0-xTB:
   * P. Pracht, E. Caldeweyher, S. Ehlert, S. Grimme, ChemRxiv, 2019, preprint.
     DOI: 10.26434/chemrxiv.8326202.v1
   for GFN-FF:
   * S. Spicher and S. Grimme, Angew. Chem. Int. Ed., 2020, 59, 15665-15673.
     DOI: 10.1002/anie.202004239
   
   for ALPB and GBSA implicit solvation:
   * S. Ehlert, M. Stahn, S. Spicher, S. Grimme, J. Chem. Theory Comput.,
     2021, 17, 4250-4261. DOI: 10.1021/acs.jctc.1c00471
   
   for ddCOSMO and CPCM-X implicit solvation:
   * M. Stahn, S. Ehlert, S. Grimme, J. Phys. Chem. A,
     2023, XX, XXXX-XXXX. DOI: 10.1021/acs.jpca.3c04382
   
   for DFT-D4:
   * E. Caldeweyher, C. Bannwarth and S. Grimme, J. Chem. Phys., 2017,
     147, 034112. DOI: 10.1063/1.4993215
   * E. Caldeweyher, S. Ehlert, A. Hansen, H. Neugebauer, S. Spicher,
     C. Bannwarth and S. Grimme, J. Chem. Phys., 2019, 150, 154122.
     DOI: 10.1063/1.5090222
   * E. Caldeweyher, J.-M. Mewes, S. Ehlert and S. Grimme, Phys. Chem. Chem. Phys.
     2020, 22, 8499-8512. DOI: 10.1039/D0CP00502A
   
   for sTDA-xTB:
   * S. Grimme and C. Bannwarth, J. Chem. Phys., 2016, 145, 054103.
     DOI: 10.1063/1.4959605
   
   in the mass-spec context:
   * V. Asgeirsson, C. Bauer and S. Grimme, Chem. Sci., 2017, 8, 4879.
     DOI: 10.1039/c7sc00601b
   * J. Koopman and S. Grimme, ACS Omega 2019, 4, 12, 15120-15133.
     DOI: 10.1021/acsomega.9b02011
   
   for metadynamics refer to:
   * S. Grimme, J. Chem. Theory Comput., 2019, 155, 2847-2862
     DOI: 10.1021/acs.jctc.9b00143
   
   for SPH calculations refer to:
   * S. Spicher and S. Grimme, J. Chem. Theory Comput., 2021, 17, 1701-1714
     DOI: 10.1021/acs.jctc.0c01306
   
   for ONIOM refer to:
   * C. Plett, A. Katbashev, S. Ehlert, S. Grimme, M. Bursch,
     Phys. Chem. Chem. Phys., 2023, 25, 17860-17868. DOI: 10.1039/D3CP02178E
   
   for DIPRO refer to:
   * J. Kohn, N. Gildemeister, S. Grimme, D. Fazzi, A. Hansen,
     J. Chem. Phys., 2023, just accepted.
   
   for PTB refer to:
   * S. Grimme, M. Mueller, A. Hansen, J. Chem. Phys., 2023, 158, 124111.
     DOI: 10.1063/5.0137838
   
   with help from (in alphabetical order)
   P. Atkinson, C. Bannwarth, F. Bohle, G. Brandenburg, E. Caldeweyher
   M. Checinski, S. Dohm, S. Ehlert, S. Ehrlich, I. Gerasimov, C. Hölzer
   A. Katbashev, J. Kohn, J. Koopman, C. Lavigne, S. Lehtola, F. März, M. Müller,
   F. Musil, H. Neugebauer, J. Pisarek, C. Plett, P. Pracht, F. Pultar,
   J. Seibert, P. Shushkov, S. Spicher, M. Stahn, M. Steiner, T. Strunk,
   J. Stückrath, T. Rose, and J. Unsleber
   
 * started run on 2025/06/25 at 12:07:26.846     
$$$$$$$$$$$$$$$$$$$$$$$$$$$$$$$$$$$$$$$$$$$$$$$$$$$$$$$$$$$$$$$$$$$$$$$$
 CONSTRAINTS & SCANS: DEBUG SECTION
$$$$$$$$$$$$$$$$$$$$$$$$$$$$$$$$$$$$$$$$$$$$$$$$$$$$$$$$$$$$$$$$$$$$$$$$
   ID    Z sym.   atoms
    1    6 C      1, 3, 4, 6
    2    7 N      2
    3    8 O      5, 7
    4    1 H      8-14
$$$$$$$$$$$$$$$$$$$$$$$$$$$$$$$$$$$$$$$$$$$$$$$$$$$$$$$$$$$$$$$$$$$$$$$$

           -------------------------------------------------
          |                Calculation Setup                |
           -------------------------------------------------

          program call               : C:\Users\nkapa\Downloads\xtb-6.7.1pre-windows-x86_64\xtb-6.7.1\bin\xtb.EXE dft_tmp\mol_546.xyz --gfn2 --parallel 8 --verbose
          coordinate file            : dft_tmp\mol_546.xyz
          xtbhome directory          : C:\Users\nkapa\AppData\Roaming\SPB_Data
          path for xtb               : C:\Users\nkapa\Downloads\xtb-6.7.1pre-windows-x86_64\xtb-6.7.1\share\xtb
          xcontrol input file        : dft_tmp\mol_546.xyz
          omp threads                :                     8


           -------------------------------------------------
          |                 G F N 2 - x T B                 |
           -------------------------------------------------

        Reference                      10.1021/acs.jctc.8b01176
      * Hamiltonian:
        H0-scaling (s, p, d)           1.850000    2.230000    2.230000
        zeta-weighting                 0.500000
      * Dispersion:
        s8                             2.700000
        a1                             0.520000
        a2                             5.000000
        s9                             5.000000
      * Repulsion:
        kExp                           1.500000    1.000000
        rExp                           1.000000
      * Coulomb:
        alpha                          2.000000
        third order                    shell-resolved
        anisotropic                    true
        a3                             3.000000
        a5                             4.000000
        cn-shift                       1.200000
        cn-exp                         4.000000
        max-rad                        5.000000


          ...................................................
          :                      SETUP                      :
          :.................................................:
          :  # basis functions                  35          :
          :  # atomic orbitals                  35          :
          :  # shells                           21          :
          :  # electrons                        40          :
          :  max. iterations                   250          :
          :  Hamiltonian                  GFN2-xTB          :
          :  restarted?                      false          :
          :  GBSA solvation                  false          :
          :  PC potential                    false          :
          :  electronic temp.          300.0000000     K    :
          :  accuracy                    1.0000000          :
          :  -> integral cutoff          0.2500000E+02      :
          :  -> integral neglect         0.1000000E-07      :
          :  -> SCF convergence          0.1000000E-05 Eh   :
          :  -> wf. convergence          0.1000000E-03 e    :
          :  Broyden damping             0.4000000          :
          :  net charge                          0          :
          :  unpaired electrons                  0          :
          ...................................................

 iter      E             dE          RMSdq      gap      omega  full diag
   1    -23.3357604 -0.233358E+02  0.451E+00    4.68       0.0  T
   2    -23.3975647 -0.618043E-01  0.251E+00    5.03       1.0  T
   3    -23.3993961 -0.183140E-02  0.127E+00    4.93       1.0  T
   4    -23.4002785 -0.882398E-03  0.211E-01    4.78       1.0  T
   5    -23.4007002 -0.421705E-03  0.871E-02    4.86       1.0  T
   6    -23.4007028 -0.262843E-05  0.352E-02    4.86       1.0  T
   7    -23.4007045 -0.171408E-05  0.802E-03    4.86       3.3  T
   8    -23.4007046 -0.956127E-07  0.370E-03    4.86       7.2  T
   9    -23.4007047 -0.210254E-07  0.120E-03    4.86      22.3  T
  10    -23.4007047 -0.405198E-08  0.444E-04    4.86      60.1  T
  11    -23.4007047 -0.275644E-09  0.117E-04    4.86     228.7  T

   *** convergence criteria satisfied after 11 iterations ***

         #    Occupation            Energy/Eh            Energy/eV
      -------------------------------------------------------------
         1        2.0000           -0.7424066             -20.2019
       ...           ...                  ...                  ...
        14        2.0000           -0.5184980             -14.1090
        15        2.0000           -0.4966333             -13.5141
        16        2.0000           -0.4960522             -13.4983
        17        2.0000           -0.4882441             -13.2858
        18        2.0000           -0.4396920             -11.9646
        19        2.0000           -0.4127096             -11.2304
        20        2.0000           -0.3953889             -10.7591 (HOMO)
        21                         -0.2167332              -5.8976 (LUMO)
        22                         -0.0617764              -1.6810
        23                          0.0035580               0.0968
        24                          0.0175713               0.4781
        25                          0.0523606               1.4248
       ...                                ...                  ...
        35                          0.4994468              13.5906
      -------------------------------------------------------------
                  HL-Gap            0.1786556 Eh            4.8615 eV
             Fermi-level           -0.3060611 Eh           -8.3283 eV

 SCC (total)                   0 d,  0 h,  0 min,  0.005 sec
 SCC setup                      ...        0 min,  0.001 sec ( 20.003%)
 Dispersion                     ...        0 min,  0.000 sec (  0.000%)
 classical contributions        ...        0 min,  0.000 sec (  0.000%)
 integral evaluation            ...        0 min,  0.000 sec (  0.000%)
 iterations                     ...        0 min,  0.003 sec ( 59.994%)
 molecular gradient             ...        0 min,  0.001 sec ( 20.003%)
 printout                       ...        0 min,  0.000 sec (  0.000%)

         :::::::::::::::::::::::::::::::::::::::::::::::::::::
         ::                     SUMMARY                     ::
         :::::::::::::::::::::::::::::::::::::::::::::::::::::
         :: total energy             -23.210541923705 Eh    ::
         :: gradient norm              0.122370917281 Eh/a0 ::
         :: HOMO-LUMO gap              4.861466784135 eV    ::
         ::.................................................::
         :: HOMO orbital eigv.       -10.759078665437 eV    ::
         :: LUMO orbital eigv.        -5.897611881303 eV    ::
         ::.................................................::
         :: SCC energy               -23.400689410242 Eh    ::
         :: -> isotropic ES            0.056327328428 Eh    ::
         :: -> anisotropic ES          0.003412500801 Eh    ::
         :: -> anisotropic XC          0.004938826610 Eh    ::
         :: -> dispersion             -0.008437647376 Eh    ::
         :: repulsion energy           0.190147486537 Eh    ::
         :: add. restraining           0.000000000000 Eh    ::
         :: total charge               0.000000000000 e     ::
         ::.................................................::
         :: atomisation energy         3.902382690554 Eh    ::
         :::::::::::::::::::::::::::::::::::::::::::::::::::::

           -------------------------------------------------
          |                Property Printout                |
           -------------------------------------------------

    * Orbital Energies and Occupations

         #    Occupation            Energy/Eh            Energy/eV
      -------------------------------------------------------------
         1        2.0000           -0.7424066             -20.2019
       ...           ...                  ...                  ...
         8        2.0000           -0.5953415             -16.2001
         9        2.0000           -0.5694319             -15.4950
        10        2.0000           -0.5538701             -15.0716
        11        2.0000           -0.5379077             -14.6372
        12        2.0000           -0.5320110             -14.4768
        13        2.0000           -0.5291100             -14.3978
        14        2.0000           -0.5184980             -14.1090
        15        2.0000           -0.4966333             -13.5141
        16        2.0000           -0.4960522             -13.4983
        17        2.0000           -0.4882441             -13.2858
        18        2.0000           -0.4396920             -11.9646
        19        2.0000           -0.4127096             -11.2304
        20        2.0000           -0.3953889             -10.7591 (HOMO)
        21                         -0.2167332              -5.8976 (LUMO)
        22                         -0.0617764              -1.6810
        23                          0.0035580               0.0968
        24                          0.0175713               0.4781
        25                          0.0523606               1.4248
        26                          0.0801401               2.1807
        27                          0.0816309               2.2213
        28                          0.1088729               2.9626
        29                          0.1299447               3.5360
        30                          0.1688686               4.5951
        31                          0.1788455               4.8666
       ...                                ...                  ...
        35                          0.4994468              13.5906
      -------------------------------------------------------------
                  HL-Gap            0.1786556 Eh            4.8615 eV
             Fermi-level           -0.3060611 Eh           -8.3283 eV

     #   Z          covCN         q      C6AA      α(0)
     1   6 C        3.674    -0.036    21.459     6.638
     2   7 N        2.732    -0.129    23.797     7.245
     3   6 C        3.773    -0.002    20.645     6.474
     4   6 C        3.735     0.069    19.507     6.303
     5   8 O        1.703    -0.261    18.333     5.781
     6   6 C        2.730     0.379    20.590     7.429
     7   8 O        0.856    -0.438    22.450     6.353
     8   1 H        0.922     0.067     2.117     2.275
     9   1 H        0.922     0.059     2.212     2.326
    10   1 H        0.922     0.067     2.117     2.275
    11   1 H        0.921     0.051     2.310     2.377
    12   1 H        0.921     0.051     2.310     2.377
    13   1 H        0.921     0.062     2.179     2.309
    14   1 H        0.921     0.062     2.179     2.309

 Mol. C6AA /au·bohr⁶  :       1790.032898
 Mol. C8AA /au·bohr⁸  :      38651.364442
 Mol. α(0) /au        :         62.470820


Wiberg/Mayer (AO) data.
largest (>0.10) Wiberg bond orders for each atom

 ---------------------------------------------------------------------------
     #   Z sym  total        # sym  WBO       # sym  WBO       # sym  WBO
 ---------------------------------------------------------------------------
     1   6 C    3.961 --     2 N    0.996     9 H    0.983     8 H    0.976
                            10 H    0.976
     2   7 N    3.424 --     6 C    1.168     3 C    1.000     1 C    0.996
                             7 O    0.168
     3   6 C    3.978 --     2 N    1.000     4 C    0.992    11 H    0.971
                            12 H    0.971
     4   6 C    3.941 --     3 C    0.992    13 H    0.971    14 H    0.971
                             5 O    0.970
     5   8 O    2.260 --     6 C    1.062     4 C    0.970     7 O    0.119
     6   6 C    3.937 --     7 O    1.645     2 N    1.168     5 O    1.062
     7   8 O    1.981 --     6 C    1.645     2 N    0.168     5 O    0.119
     8   1 H    0.995 --     1 C    0.976
     9   1 H    0.997 --     1 C    0.983
    10   1 H    0.995 --     1 C    0.976
    11   1 H    0.997 --     3 C    0.971
    12   1 H    0.997 --     3 C    0.971
    13   1 H    0.996 --     4 C    0.971
    14   1 H    0.996 --     4 C    0.971
 ---------------------------------------------------------------------------

Topologies differ in total number of bonds
Writing topology from bond orders to xtbtopo.mol

molecular dipole:
                 x           y           z       tot (Debye)
 q only:        0.111      -2.096       0.446
   full:        0.044      -2.388       0.512       6.210
molecular quadrupole (traceless):
                xx          xy          yy          xz          yz          zz
 q only:        7.272       1.580      -9.361      -0.559       2.501       2.088
  q+dip:        6.621       0.914     -11.917      -0.221       3.838       5.295
   full:        6.926       1.148     -11.719      -0.311       3.667       4.793


           -------------------------------------------------
          | TOTAL ENERGY              -23.210541923705 Eh   |
          | GRADIENT NORM               0.122370917281 Eh/α |
          | HOMO-LUMO GAP               4.861466784135 eV   |
           -------------------------------------------------
########################################################################
[WARNING] Runtime exception occurred
-2- restart_readRestart: Dimension missmatch in restart file.
-1- restart_readRestart: Number of electron missmatch in restart file.
########################################################################

------------------------------------------------------------------------
 unit  open   action     filename
  129 false : read       dft_tmp\mol_546.xyz
  129 false : read       dft_tmp\mol_546.xyz
  129 false : read       dft_tmp\mol_546.xyz
  129 false : read       C:\Users\nkapa\Downloads\xtb-6.7.1pre-windows-x86_64\xtb-6.7.1\share\xtb\param_gfn2-xtb.txt
  129 false : read       xtbrestart
  129 false : replaced   charges
  129 false : replaced   wbo
  129 false : replaced   xtbtopo.mol
  129 false : replaced   xtbrestart

------------------------------------------------------------------------
 * finished run on 2025/06/25 at 12:07:26.912     
------------------------------------------------------------------------
 total:
 * wall-time:     0 d,  0 h,  0 min,  0.065 sec
 *  cpu-time:     0 d,  0 h,  0 min,  0.250 sec
 * ratio c/w:     3.846 speedup
 SCF:
 * wall-time:     0 d,  0 h,  0 min,  0.006 sec
 *  cpu-time:     0 d,  0 h,  0 min,  0.000 sec
 * ratio c/w:     0.000 speedup

normal termination of xtb
