      -----------------------------------------------------------      
     |                   =====================                   |     
     |                           x T B                           |     
     |                   =====================                   |     
     |                         S. Grimme                         |     
     |          Mulliken Center for Theoretical Chemistry        |     
     |                    University of Bonn                     |     
      -----------------------------------------------------------      

   * xtb version 6.7.1pre (5071a88) compiled by 'Marcel@Raven' on 2024-07-23

   xtb is free software: you can redistribute it and/or modify it under
   the terms of the GNU Lesser General Public License as published by
   the Free Software Foundation, either version 3 of the License, or
   (at your option) any later version.
   
   xtb is distributed in the hope that it will be useful,
   but WITHOUT ANY WARRANTY; without even the implied warranty of
   MERCHANTABILITY or FITNESS FOR A PARTICULAR PURPOSE.  See the
   GNU Lesser General Public License for more details.
   
   Cite this work as:
   * C. Bannwarth, E. Caldeweyher, S. Ehlert, A. Hansen, P. Pracht,
     J. Seibert, S. Spicher, S. Grimme, WIREs Comput. Mol. Sci., 2020, 11,
     e01493. DOI: 10.1002/wcms.1493
   
   for GFN2-xTB:
   * C. Bannwarth, S. Ehlert and S. Grimme., J. Chem. Theory Comput., 2019,
     15, 1652-1671. DOI: 10.1021/acs.jctc.8b01176
   for GFN1-xTB:
   * S. Grimme, C. Bannwarth, P. Shushkov, J. Chem. Theory Comput., 2017,
     13, 1989-2009. DOI: 10.1021/acs.jctc.7b00118
   for GFN0-xTB:
   * P. Pracht, E. Caldeweyher, S. Ehlert, S. Grimme, ChemRxiv, 2019, preprint.
     DOI: 10.26434/chemrxiv.8326202.v1
   for GFN-FF:
   * S. Spicher and S. Grimme, Angew. Chem. Int. Ed., 2020, 59, 15665-15673.
     DOI: 10.1002/anie.202004239
   
   for ALPB and GBSA implicit solvation:
   * S. Ehlert, M. Stahn, S. Spicher, S. Grimme, J. Chem. Theory Comput.,
     2021, 17, 4250-4261. DOI: 10.1021/acs.jctc.1c00471
   
   for ddCOSMO and CPCM-X implicit solvation:
   * M. Stahn, S. Ehlert, S. Grimme, J. Phys. Chem. A,
     2023, XX, XXXX-XXXX. DOI: 10.1021/acs.jpca.3c04382
   
   for DFT-D4:
   * E. Caldeweyher, C. Bannwarth and S. Grimme, J. Chem. Phys., 2017,
     147, 034112. DOI: 10.1063/1.4993215
   * E. Caldeweyher, S. Ehlert, A. Hansen, H. Neugebauer, S. Spicher,
     C. Bannwarth and S. Grimme, J. Chem. Phys., 2019, 150, 154122.
     DOI: 10.1063/1.5090222
   * E. Caldeweyher, J.-M. Mewes, S. Ehlert and S. Grimme, Phys. Chem. Chem. Phys.
     2020, 22, 8499-8512. DOI: 10.1039/D0CP00502A
   
   for sTDA-xTB:
   * S. Grimme and C. Bannwarth, J. Chem. Phys., 2016, 145, 054103.
     DOI: 10.1063/1.4959605
   
   in the mass-spec context:
   * V. Asgeirsson, C. Bauer and S. Grimme, Chem. Sci., 2017, 8, 4879.
     DOI: 10.1039/c7sc00601b
   * J. Koopman and S. Grimme, ACS Omega 2019, 4, 12, 15120-15133.
     DOI: 10.1021/acsomega.9b02011
   
   for metadynamics refer to:
   * S. Grimme, J. Chem. Theory Comput., 2019, 155, 2847-2862
     DOI: 10.1021/acs.jctc.9b00143
   
   for SPH calculations refer to:
   * S. Spicher and S. Grimme, J. Chem. Theory Comput., 2021, 17, 1701-1714
     DOI: 10.1021/acs.jctc.0c01306
   
   for ONIOM refer to:
   * C. Plett, A. Katbashev, S. Ehlert, S. Grimme, M. Bursch,
     Phys. Chem. Chem. Phys., 2023, 25, 17860-17868. DOI: 10.1039/D3CP02178E
   
   for DIPRO refer to:
   * J. Kohn, N. Gildemeister, S. Grimme, D. Fazzi, A. Hansen,
     J. Chem. Phys., 2023, just accepted.
   
   for PTB refer to:
   * S. Grimme, M. Mueller, A. Hansen, J. Chem. Phys., 2023, 158, 124111.
     DOI: 10.1063/5.0137838
   
   with help from (in alphabetical order)
   P. Atkinson, C. Bannwarth, F. Bohle, G. Brandenburg, E. Caldeweyher
   M. Checinski, S. Dohm, S. Ehlert, S. Ehrlich, I. Gerasimov, C. Hölzer
   A. Katbashev, J. Kohn, J. Koopman, C. Lavigne, S. Lehtola, F. März, M. Müller,
   F. Musil, H. Neugebauer, J. Pisarek, C. Plett, P. Pracht, F. Pultar,
   J. Seibert, P. Shushkov, S. Spicher, M. Stahn, M. Steiner, T. Strunk,
   J. Stückrath, T. Rose, and J. Unsleber
   
 * started run on 2025/06/25 at 12:06:16.888     
$$$$$$$$$$$$$$$$$$$$$$$$$$$$$$$$$$$$$$$$$$$$$$$$$$$$$$$$$$$$$$$$$$$$$$$$
 CONSTRAINTS & SCANS: DEBUG SECTION
$$$$$$$$$$$$$$$$$$$$$$$$$$$$$$$$$$$$$$$$$$$$$$$$$$$$$$$$$$$$$$$$$$$$$$$$
   ID    Z sym.   atoms
    1    6 C      1, 2, 4, 6-8
    2    7 N      3, 5, 11
    3    8 O      9, 10
    4    1 H      12-20
$$$$$$$$$$$$$$$$$$$$$$$$$$$$$$$$$$$$$$$$$$$$$$$$$$$$$$$$$$$$$$$$$$$$$$$$

           -------------------------------------------------
          |                Calculation Setup                |
           -------------------------------------------------

          program call               : C:\Users\nkapa\Downloads\xtb-6.7.1pre-windows-x86_64\xtb-6.7.1\bin\xtb.EXE dft_tmp\mol_71.xyz --gfn2 --parallel 8 --verbose
          coordinate file            : dft_tmp\mol_71.xyz
          xtbhome directory          : C:\Users\nkapa\AppData\Roaming\SPB_Data
          path for xtb               : C:\Users\nkapa\Downloads\xtb-6.7.1pre-windows-x86_64\xtb-6.7.1\share\xtb
          xcontrol input file        : dft_tmp\mol_71.xyz
          omp threads                :                     8


           -------------------------------------------------
          |                 G F N 2 - x T B                 |
           -------------------------------------------------

        Reference                      10.1021/acs.jctc.8b01176
      * Hamiltonian:
        H0-scaling (s, p, d)           1.850000    2.230000    2.230000
        zeta-weighting                 0.500000
      * Dispersion:
        s8                             2.700000
        a1                             0.520000
        a2                             5.000000
        s9                             5.000000
      * Repulsion:
        kExp                           1.500000    1.000000
        rExp                           1.000000
      * Coulomb:
        alpha                          2.000000
        third order                    shell-resolved
        anisotropic                    true
        a3                             3.000000
        a5                             4.000000
        cn-shift                       1.200000
        cn-exp                         4.000000
        max-rad                        5.000000


          ...................................................
          :                      SETUP                      :
          :.................................................:
          :  # basis functions                  53          :
          :  # atomic orbitals                  53          :
          :  # shells                           31          :
          :  # electrons                        60          :
          :  max. iterations                   250          :
          :  Hamiltonian                  GFN2-xTB          :
          :  restarted?                      false          :
          :  GBSA solvation                  false          :
          :  PC potential                    false          :
          :  electronic temp.          300.0000000     K    :
          :  accuracy                    1.0000000          :
          :  -> integral cutoff          0.2500000E+02      :
          :  -> integral neglect         0.1000000E-07      :
          :  -> SCF convergence          0.1000000E-05 Eh   :
          :  -> wf. convergence          0.1000000E-03 e    :
          :  Broyden damping             0.4000000          :
          :  net charge                          0          :
          :  unpaired electrons                  0          :
          ...................................................

 iter      E             dE          RMSdq      gap      omega  full diag
   1    -34.5423348 -0.345423E+02  0.432E+00    3.57       0.0  T
   2    -34.6460520 -0.103717E+00  0.254E+00    2.64       1.0  T
   3    -34.6594353 -0.133833E-01  0.149E+00    3.22       1.0  T
   4    -34.6604347 -0.999469E-03  0.525E-01    2.85       1.0  T
   5    -34.6644425 -0.400777E-02  0.114E-01    2.88       1.0  T
   6    -34.6644705 -0.279525E-04  0.687E-02    2.86       1.0  T
   7    -34.6645127 -0.422032E-04  0.237E-02    2.84       1.0  T
   8    -34.6645136 -0.896751E-06  0.729E-03    2.85       3.1  T
   9    -34.6645138 -0.199557E-06  0.343E-03    2.85       6.5  T
  10    -34.6645138 -0.312178E-07  0.150E-03    2.85      14.9  T
  11    -34.6645138 -0.162154E-07  0.613E-04    2.85      36.5  T
  12    -34.6645138 -0.216556E-08  0.244E-04    2.85      91.7  T

   *** convergence criteria satisfied after 12 iterations ***

         #    Occupation            Energy/Eh            Energy/eV
      -------------------------------------------------------------
         1        2.0000           -0.7415339             -20.1782
       ...           ...                  ...                  ...
        24        2.0000           -0.4686184             -12.7518
        25        2.0000           -0.4649115             -12.6509
        26        2.0000           -0.4325274             -11.7697
        27        2.0000           -0.4308275             -11.7234
        28        2.0000           -0.3884935             -10.5714
        29        2.0000           -0.3812352             -10.3739
        30        2.0000           -0.3768242             -10.2539 (HOMO)
        31                         -0.2720179              -7.4020 (LUMO)
        32                         -0.2081366              -5.6637
        33                         -0.1700497              -4.6273
        34                         -0.0565758              -1.5395
        35                         -0.0160048              -0.4355
       ...                                ...                  ...
        53                          0.5957798              16.2120
      -------------------------------------------------------------
                  HL-Gap            0.1048063 Eh            2.8519 eV
             Fermi-level           -0.3244210 Eh           -8.8279 eV

 SCC (total)                   0 d,  0 h,  0 min,  0.009 sec
 SCC setup                      ...        0 min,  0.001 sec ( 11.113%)
 Dispersion                     ...        0 min,  0.000 sec (  0.000%)
 classical contributions        ...        0 min,  0.000 sec (  0.000%)
 integral evaluation            ...        0 min,  0.000 sec (  0.000%)
 iterations                     ...        0 min,  0.007 sec ( 77.777%)
 molecular gradient             ...        0 min,  0.001 sec ( 11.110%)
 printout                       ...        0 min,  0.000 sec (  0.000%)

         :::::::::::::::::::::::::::::::::::::::::::::::::::::
         ::                     SUMMARY                     ::
         :::::::::::::::::::::::::::::::::::::::::::::::::::::
         :: total energy             -34.312678840804 Eh    ::
         :: gradient norm              0.159643838505 Eh/a0 ::
         :: HOMO-LUMO gap              2.851925086327 eV    ::
         ::.................................................::
         :: HOMO orbital eigv.       -10.253908231523 eV    ::
         :: LUMO orbital eigv.        -7.401983145196 eV    ::
         ::.................................................::
         :: SCC energy               -34.664398678105 Eh    ::
         :: -> isotropic ES            0.071894046596 Eh    ::
         :: -> anisotropic ES          0.008076305670 Eh    ::
         :: -> anisotropic XC          0.017775617509 Eh    ::
         :: -> dispersion             -0.016389000855 Eh    ::
         :: repulsion energy           0.351719837301 Eh    ::
         :: add. restraining           0.000000000000 Eh    ::
         :: total charge               0.000000000000 e     ::
         ::.................................................::
         :: atomisation energy         5.910442310767 Eh    ::
         :::::::::::::::::::::::::::::::::::::::::::::::::::::

           -------------------------------------------------
          |                Property Printout                |
           -------------------------------------------------

    * Orbital Energies and Occupations

         #    Occupation            Energy/Eh            Energy/eV
      -------------------------------------------------------------
         1        2.0000           -0.7415339             -20.1782
       ...           ...                  ...                  ...
        18        2.0000           -0.5218513             -14.2003
        19        2.0000           -0.5097299             -13.8705
        20        2.0000           -0.4970099             -13.5243
        21        2.0000           -0.4858468             -13.2206
        22        2.0000           -0.4781133             -13.0101
        23        2.0000           -0.4752336             -12.9318
        24        2.0000           -0.4686184             -12.7518
        25        2.0000           -0.4649115             -12.6509
        26        2.0000           -0.4325274             -11.7697
        27        2.0000           -0.4308275             -11.7234
        28        2.0000           -0.3884935             -10.5714
        29        2.0000           -0.3812352             -10.3739
        30        2.0000           -0.3768242             -10.2539 (HOMO)
        31                         -0.2720179              -7.4020 (LUMO)
        32                         -0.2081366              -5.6637
        33                         -0.1700497              -4.6273
        34                         -0.0565758              -1.5395
        35                         -0.0160048              -0.4355
        36                          0.0111083               0.3023
        37                          0.0732138               1.9923
        38                          0.0907714               2.4700
        39                          0.1018939               2.7727
        40                          0.1086992               2.9579
        41                          0.1181798               3.2158
       ...                                ...                  ...
        53                          0.5957798              16.2120
      -------------------------------------------------------------
                  HL-Gap            0.1048063 Eh            2.8519 eV
             Fermi-level           -0.3244210 Eh           -8.8279 eV

     #   Z          covCN         q      C6AA      α(0)
     1   6 C        3.124     0.011    27.587     8.601
     2   6 C        3.169     0.018    27.237     8.527
     3   7 N        2.772    -0.076    22.720     7.079
     4   6 C        3.219     0.073    25.690     8.242
     5   7 N        1.906    -0.260    27.616     7.791
     6   6 C        3.801    -0.067    21.786     6.645
     7   6 C        3.781     0.052    19.722     6.326
     8   6 C        2.691     0.342    21.191     7.534
     9   8 O        0.856    -0.398    21.649     6.238
    10   8 O        1.647    -0.383    20.520     6.115
    11   7 N        2.628    -0.322    28.279     7.898
    12   1 H        0.925     0.031     2.571     2.508
    13   1 H        0.858     0.169     1.281     1.773
    14   1 H        0.925     0.036     2.504     2.475
    15   1 H        0.921     0.059     2.214     2.327
    16   1 H        0.921     0.063     2.166     2.302
    17   1 H        0.921     0.031     2.576     2.510
    18   1 H        0.796     0.331     0.637     1.254
    19   1 H        0.857     0.142     1.457     1.891
    20   1 H        0.857     0.149     1.407     1.858

 Mol. C6AA /au·bohr⁶  :       4316.144679
 Mol. C8AA /au·bohr⁸  :      97291.584478
 Mol. α(0) /au        :         99.895093


Wiberg/Mayer (AO) data.
largest (>0.10) Wiberg bond orders for each atom

 ---------------------------------------------------------------------------
     #   Z sym  total        # sym  WBO       # sym  WBO       # sym  WBO
 ---------------------------------------------------------------------------
     1   6 C    3.975 --     2 C    1.516     5 N    1.338    12 H    0.970
     2   6 C    3.940 --     1 C    1.516     3 N    1.220     6 C    1.012
                             4 C    0.130
     3   7 N    3.609 --     4 C    1.269     2 C    1.220    13 H    0.937
     4   6 C    3.948 --     5 N    1.510     3 N    1.269    14 H    0.967
                             2 C    0.130
     5   7 N    3.017 --     4 C    1.510     1 C    1.338
     6   6 C    3.991 --     2 C    1.012    16 H    0.969    15 H    0.965
                             7 C    0.953
     7   6 C    3.986 --    11 N    1.007     8 C    0.977    17 H    0.958
                             6 C    0.953
     8   6 C    3.911 --     9 O    1.764    10 O    1.121     7 C    0.977
     9   8 O    2.026 --     8 C    1.764    10 O    0.177
    10   8 O    2.189 --     8 C    1.121    18 H    0.863     9 O    0.177
    11   7 N    2.996 --     7 C    1.007    19 H    0.965    20 H    0.961
    12   1 H    0.999 --     1 C    0.970
    13   1 H    0.972 --     3 N    0.937
    14   1 H    0.999 --     4 C    0.967
    15   1 H    0.996 --     6 C    0.965
    16   1 H    0.996 --     6 C    0.969
    17   1 H    0.999 --     7 C    0.958
    18   1 H    0.890 --    10 O    0.863
    19   1 H    0.979 --    11 N    0.965
    20   1 H    0.978 --    11 N    0.961
 ---------------------------------------------------------------------------

Topologies differ in total number of bonds
Writing topology from bond orders to xtbtopo.mol

molecular dipole:
                 x           y           z       tot (Debye)
 q only:        0.169       0.007      -0.017
   full:        0.527       0.201       0.076       1.447
molecular quadrupole (traceless):
                xx          xy          yy          xz          yz          zz
 q only:       -9.258       2.097       7.632     -12.026       4.831       1.626
  q+dip:      -15.680       5.852       8.741     -17.947       8.436       6.939
   full:      -14.591       6.409       9.230     -18.985       8.204       5.361


           -------------------------------------------------
          | TOTAL ENERGY              -34.312678840804 Eh   |
          | GRADIENT NORM               0.159643838505 Eh/α |
          | HOMO-LUMO GAP               2.851925086327 eV   |
           -------------------------------------------------
########################################################################
[WARNING] Runtime exception occurred
-2- restart_readRestart: Dimension missmatch in restart file.
-1- restart_readRestart: Number of electron missmatch in restart file.
########################################################################

------------------------------------------------------------------------
 unit  open   action     filename
  129 false : read       dft_tmp\mol_71.xyz
  129 false : read       dft_tmp\mol_71.xyz
  129 false : read       dft_tmp\mol_71.xyz
  129 false : read       C:\Users\nkapa\Downloads\xtb-6.7.1pre-windows-x86_64\xtb-6.7.1\share\xtb\param_gfn2-xtb.txt
  129 false : read       xtbrestart
  129 false : replaced   charges
  129 false : replaced   wbo
  129 false : replaced   xtbtopo.mol
  129 false : replaced   xtbrestart

------------------------------------------------------------------------
 * finished run on 2025/06/25 at 12:06:16.936     
------------------------------------------------------------------------
 total:
 * wall-time:     0 d,  0 h,  0 min,  0.047 sec
 *  cpu-time:     0 d,  0 h,  0 min,  0.141 sec
 * ratio c/w:     2.992 speedup
 SCF:
 * wall-time:     0 d,  0 h,  0 min,  0.009 sec
 *  cpu-time:     0 d,  0 h,  0 min,  0.125 sec
 * ratio c/w:    13.889 speedup

normal termination of xtb
