      -----------------------------------------------------------      
     |                   =====================                   |     
     |                           x T B                           |     
     |                   =====================                   |     
     |                         S. Grimme                         |     
     |          Mulliken Center for Theoretical Chemistry        |     
     |                    University of Bonn                     |     
      -----------------------------------------------------------      

   * xtb version 6.7.1pre (5071a88) compiled by 'Marcel@Raven' on 2024-07-23

   xtb is free software: you can redistribute it and/or modify it under
   the terms of the GNU Lesser General Public License as published by
   the Free Software Foundation, either version 3 of the License, or
   (at your option) any later version.
   
   xtb is distributed in the hope that it will be useful,
   but WITHOUT ANY WARRANTY; without even the implied warranty of
   MERCHANTABILITY or FITNESS FOR A PARTICULAR PURPOSE.  See the
   GNU Lesser General Public License for more details.
   
   Cite this work as:
   * C. Bannwarth, E. Caldeweyher, S. Ehlert, A. Hansen, P. Pracht,
     J. Seibert, S. Spicher, S. Grimme, WIREs Comput. Mol. Sci., 2020, 11,
     e01493. DOI: 10.1002/wcms.1493
   
   for GFN2-xTB:
   * C. Bannwarth, S. Ehlert and S. Grimme., J. Chem. Theory Comput., 2019,
     15, 1652-1671. DOI: 10.1021/acs.jctc.8b01176
   for GFN1-xTB:
   * S. Grimme, C. Bannwarth, P. Shushkov, J. Chem. Theory Comput., 2017,
     13, 1989-2009. DOI: 10.1021/acs.jctc.7b00118
   for GFN0-xTB:
   * P. Pracht, E. Caldeweyher, S. Ehlert, S. Grimme, ChemRxiv, 2019, preprint.
     DOI: 10.26434/chemrxiv.8326202.v1
   for GFN-FF:
   * S. Spicher and S. Grimme, Angew. Chem. Int. Ed., 2020, 59, 15665-15673.
     DOI: 10.1002/anie.202004239
   
   for ALPB and GBSA implicit solvation:
   * S. Ehlert, M. Stahn, S. Spicher, S. Grimme, J. Chem. Theory Comput.,
     2021, 17, 4250-4261. DOI: 10.1021/acs.jctc.1c00471
   
   for ddCOSMO and CPCM-X implicit solvation:
   * M. Stahn, S. Ehlert, S. Grimme, J. Phys. Chem. A,
     2023, XX, XXXX-XXXX. DOI: 10.1021/acs.jpca.3c04382
   
   for DFT-D4:
   * E. Caldeweyher, C. Bannwarth and S. Grimme, J. Chem. Phys., 2017,
     147, 034112. DOI: 10.1063/1.4993215
   * E. Caldeweyher, S. Ehlert, A. Hansen, H. Neugebauer, S. Spicher,
     C. Bannwarth and S. Grimme, J. Chem. Phys., 2019, 150, 154122.
     DOI: 10.1063/1.5090222
   * E. Caldeweyher, J.-M. Mewes, S. Ehlert and S. Grimme, Phys. Chem. Chem. Phys.
     2020, 22, 8499-8512. DOI: 10.1039/D0CP00502A
   
   for sTDA-xTB:
   * S. Grimme and C. Bannwarth, J. Chem. Phys., 2016, 145, 054103.
     DOI: 10.1063/1.4959605
   
   in the mass-spec context:
   * V. Asgeirsson, C. Bauer and S. Grimme, Chem. Sci., 2017, 8, 4879.
     DOI: 10.1039/c7sc00601b
   * J. Koopman and S. Grimme, ACS Omega 2019, 4, 12, 15120-15133.
     DOI: 10.1021/acsomega.9b02011
   
   for metadynamics refer to:
   * S. Grimme, J. Chem. Theory Comput., 2019, 155, 2847-2862
     DOI: 10.1021/acs.jctc.9b00143
   
   for SPH calculations refer to:
   * S. Spicher and S. Grimme, J. Chem. Theory Comput., 2021, 17, 1701-1714
     DOI: 10.1021/acs.jctc.0c01306
   
   for ONIOM refer to:
   * C. Plett, A. Katbashev, S. Ehlert, S. Grimme, M. Bursch,
     Phys. Chem. Chem. Phys., 2023, 25, 17860-17868. DOI: 10.1039/D3CP02178E
   
   for DIPRO refer to:
   * J. Kohn, N. Gildemeister, S. Grimme, D. Fazzi, A. Hansen,
     J. Chem. Phys., 2023, just accepted.
   
   for PTB refer to:
   * S. Grimme, M. Mueller, A. Hansen, J. Chem. Phys., 2023, 158, 124111.
     DOI: 10.1063/5.0137838
   
   with help from (in alphabetical order)
   P. Atkinson, C. Bannwarth, F. Bohle, G. Brandenburg, E. Caldeweyher
   M. Checinski, S. Dohm, S. Ehlert, S. Ehrlich, I. Gerasimov, C. Hölzer
   A. Katbashev, J. Kohn, J. Koopman, C. Lavigne, S. Lehtola, F. März, M. Müller,
   F. Musil, H. Neugebauer, J. Pisarek, C. Plett, P. Pracht, F. Pultar,
   J. Seibert, P. Shushkov, S. Spicher, M. Stahn, M. Steiner, T. Strunk,
   J. Stückrath, T. Rose, and J. Unsleber
   
 * started run on 2025/06/25 at 12:06:46.792     
$$$$$$$$$$$$$$$$$$$$$$$$$$$$$$$$$$$$$$$$$$$$$$$$$$$$$$$$$$$$$$$$$$$$$$$$
 CONSTRAINTS & SCANS: DEBUG SECTION
$$$$$$$$$$$$$$$$$$$$$$$$$$$$$$$$$$$$$$$$$$$$$$$$$$$$$$$$$$$$$$$$$$$$$$$$
   ID    Z sym.   atoms
    1    6 C      1-4, 6, 7, 9-11, 22
    2    7 N      5, 8, 18
    3    9 F      12-14, 23-25
    4   16 S      15, 19
    5    8 O      16, 17, 20, 21
    6    1 H      26-40
$$$$$$$$$$$$$$$$$$$$$$$$$$$$$$$$$$$$$$$$$$$$$$$$$$$$$$$$$$$$$$$$$$$$$$$$

           -------------------------------------------------
          |                Calculation Setup                |
           -------------------------------------------------

          program call               : C:\Users\nkapa\Downloads\xtb-6.7.1pre-windows-x86_64\xtb-6.7.1\bin\xtb.EXE dft_tmp\mol_276.xyz --gfn2 --parallel 8 --verbose
          coordinate file            : dft_tmp\mol_276.xyz
          xtbhome directory          : C:\Users\nkapa\AppData\Roaming\SPB_Data
          path for xtb               : C:\Users\nkapa\Downloads\xtb-6.7.1pre-windows-x86_64\xtb-6.7.1\share\xtb
          xcontrol input file        : dft_tmp\mol_276.xyz
          omp threads                :                     8


           -------------------------------------------------
          |                 G F N 2 - x T B                 |
           -------------------------------------------------

        Reference                      10.1021/acs.jctc.8b01176
      * Hamiltonian:
        H0-scaling (s, p, d)           1.850000    2.230000    2.230000
        zeta-weighting                 0.500000
      * Dispersion:
        s8                             2.700000
        a1                             0.520000
        a2                             5.000000
        s9                             5.000000
      * Repulsion:
        kExp                           1.500000    1.000000
        rExp                           1.000000
      * Coulomb:
        alpha                          2.000000
        third order                    shell-resolved
        anisotropic                    true
        a3                             3.000000
        a5                             4.000000
        cn-shift                       1.200000
        cn-exp                         4.000000
        max-rad                        5.000000


          ...................................................
          :                      SETUP                      :
          :.................................................:
          :  # basis functions                 127          :
          :  # atomic orbitals                 125          :
          :  # shells                           67          :
          :  # electrons                       148          :
          :  max. iterations                   250          :
          :  Hamiltonian                  GFN2-xTB          :
          :  restarted?                      false          :
          :  GBSA solvation                  false          :
          :  PC potential                    false          :
          :  electronic temp.          300.0000000     K    :
          :  accuracy                    1.0000000          :
          :  -> integral cutoff          0.2500000E+02      :
          :  -> integral neglect         0.1000000E-07      :
          :  -> SCF convergence          0.1000000E-05 Eh   :
          :  -> wf. convergence          0.1000000E-03 e    :
          :  Broyden damping             0.4000000          :
          :  net charge                          0          :
          :  unpaired electrons                  0          :
          ...................................................

 iter      E             dE          RMSdq      gap      omega  full diag
   1    -80.2537102 -0.802537E+02  0.104E+01    0.63       0.0  T
   2    -77.0847662  0.316894E+01  0.945E+00    0.80       1.0  T
   3    -80.1458885 -0.306112E+01  0.628E+00    0.40       1.0  T
   4    -79.4446273  0.701261E+00  0.508E+00    0.58       1.0  T
   5    -82.4205208 -0.297589E+01  0.311E+00    0.08       1.0  T
   6    -82.8486071 -0.428086E+00  0.158E+00    0.41       1.0  T
   7    -82.9110145 -0.624074E-01  0.867E-01    0.23       1.0  T
   8    -82.9043014  0.671315E-02  0.677E-01    0.29       1.0  T
   9    -82.9115727 -0.727131E-02  0.324E-01    0.23       1.0  T
  10    -82.9130234 -0.145065E-02  0.280E-01    0.23       1.0  T
  11    -82.9148639 -0.184059E-02  0.125E-01    0.22       1.0  T
  12    -82.9153045 -0.440530E-03  0.453E-02    0.22       1.0  T
  13    -82.9153492 -0.446995E-04  0.528E-02    0.21       1.0  T
  14    -82.9154001 -0.509670E-04  0.186E-02    0.22       1.0  T
  15    -82.9154022 -0.204508E-05  0.103E-02    0.22       1.5  T
  16    -82.9154037 -0.147146E-05  0.668E-03    0.21       2.4  T
  17    -82.9154046 -0.937046E-06  0.201E-03    0.21       7.9  T
  18    -82.9154048 -0.211810E-06  0.157E-03    0.21      10.1  T
  19    -82.9154048 -0.299819E-07  0.511E-04    0.21      31.0  T
  20    -82.9154048 -0.258342E-08  0.184E-04    0.21      86.0  T

   *** convergence criteria satisfied after 20 iterations ***

         #    Occupation            Energy/Eh            Energy/eV
      -------------------------------------------------------------
         1        2.0000           -1.2703527             -34.5681
       ...           ...                  ...                  ...
        68        2.0000           -0.3024117              -8.2290
        69        2.0000           -0.2653532              -7.2206
        70        2.0000           -0.2541572              -6.9160
        71        2.0000           -0.2235654              -6.0835
        72        2.0000           -0.2082899              -5.6679
        73        2.0000           -0.1912374              -5.2038
        74        1.9684           -0.1575750              -4.2878 (HOMO)
        75        0.0316           -0.1497229              -4.0742 (LUMO)
        76                         -0.1322730              -3.5993
        77                         -0.1221140              -3.3229
        78                         -0.1018858              -2.7725
        79                         -0.0808382              -2.1997
       ...                                ...                  ...
       125                         23.7475968             646.2050
      -------------------------------------------------------------
                  HL-Gap            0.0078521 Eh            0.2137 eV
             Fermi-level           -0.1536489 Eh           -4.1810 eV

 SCC (total)                   0 d,  0 h,  0 min,  0.045 sec
 SCC setup                      ...        0 min,  0.000 sec (  0.000%)
 Dispersion                     ...        0 min,  0.001 sec (  2.222%)
 classical contributions        ...        0 min,  0.000 sec (  0.000%)
 integral evaluation            ...        0 min,  0.003 sec (  6.667%)
 iterations                     ...        0 min,  0.036 sec ( 80.000%)
 molecular gradient             ...        0 min,  0.005 sec ( 11.111%)
 printout                       ...        0 min,  0.000 sec (  0.000%)

         :::::::::::::::::::::::::::::::::::::::::::::::::::::
         ::                     SUMMARY                     ::
         :::::::::::::::::::::::::::::::::::::::::::::::::::::
         :: total energy             -69.225038277533 Eh    ::
         :: gradient norm             25.161568938173 Eh/a0 ::
         :: HOMO-LUMO gap              0.213667760430 eV    ::
         ::.................................................::
         :: HOMO orbital eigv.        -4.287834194042 eV    ::
         :: LUMO orbital eigv.        -4.074166433612 eV    ::
         ::.................................................::
         :: SCC energy               -82.915151817686 Eh    ::
         :: -> isotropic ES            0.488272002550 Eh    ::
         :: -> anisotropic ES          0.047506083595 Eh    ::
         :: -> anisotropic XC         -0.097208862520 Eh    ::
         :: -> dispersion             -0.072511234410 Eh    ::
         :: repulsion energy          13.690113540153 Eh    ::
         :: add. restraining           0.000000000000 Eh    ::
         :: total charge              -0.000000000339 e     ::
         ::.................................................::
         :: atomisation energy        -9.555638654603 Eh    ::
         :::::::::::::::::::::::::::::::::::::::::::::::::::::

           -------------------------------------------------
          |                Property Printout                |
           -------------------------------------------------

    * Orbital Energies and Occupations

         #    Occupation            Energy/Eh            Energy/eV
      -------------------------------------------------------------
         1        2.0000           -1.2703527             -34.5681
       ...           ...                  ...                  ...
        62        2.0000           -0.4052269             -11.0268
        63        2.0000           -0.3961385             -10.7795
        64        2.0000           -0.3938021             -10.7159
        65        2.0000           -0.3515071              -9.5650
        66        2.0000           -0.3385836              -9.2133
        67        2.0000           -0.3182927              -8.6612
        68        2.0000           -0.3024117              -8.2290
        69        2.0000           -0.2653532              -7.2206
        70        2.0000           -0.2541572              -6.9160
        71        2.0000           -0.2235654              -6.0835
        72        2.0000           -0.2082899              -5.6679
        73        2.0000           -0.1912374              -5.2038
        74        1.9684           -0.1575750              -4.2878 (HOMO)
        75        0.0316           -0.1497229              -4.0742 (LUMO)
        76                         -0.1322730              -3.5993
        77                         -0.1221140              -3.3229
        78                         -0.1018858              -2.7725
        79                         -0.0808382              -2.1997
        80                         -0.0682943              -1.8584
        81                         -0.0364634              -0.9922
        82                         -0.0171324              -0.4662
        83                         -0.0007782              -0.0212
        84                          0.0096508               0.2626
        85                          0.0248417               0.6760
       ...                                ...                  ...
       125                         23.7475968             646.2050
      -------------------------------------------------------------
                  HL-Gap            0.0078521 Eh            0.2137 eV
             Fermi-level           -0.1536489 Eh           -4.1810 eV

     #   Z          covCN         q      C6AA      α(0)
     1   6 C        5.761     0.007    20.371     6.410
     2   6 C        6.480     0.228    16.992     5.854
     3   6 C        7.120    -0.220    24.756     7.066
     4   6 C        7.443     0.043    19.761     6.313
     5   7 N        6.581     0.139    18.883     6.454
     6   6 C        4.674    -0.151    23.307     6.856
     7   6 C        4.430    -0.018    20.814     6.479
     8   7 N        6.255     0.365    15.643     5.874
     9   6 C        6.512    -0.181    23.930     6.947
    10   6 C        5.516    -0.152    23.342     6.861
    11   6 C        7.039     0.261    16.536     5.775
    12   9 F        3.181     0.056     8.889     3.523
    13   9 F        1.225    -0.459    14.277     4.465
    14   9 F        3.294     0.190     7.888     3.319
    15  16 S        9.027     0.747   114.232    17.989
    16   8 O        2.444    -0.515    23.149     6.498
    17   8 O        0.927    -0.723    29.281     7.257
    18   7 N        5.433    -0.793    44.003     9.852
    19  16 S       10.115     0.800   112.607    17.860
    20   8 O        2.643    -0.602    25.146     6.773
    21   8 O        1.638    -0.734    28.607     7.220
    22   6 C        7.418     0.055    19.573     6.283
    23   9 F        1.090    -0.314    12.473     4.173
    24   9 F        1.101    -0.327    12.622     4.198
    25   9 F        2.900     0.635     5.342     2.731
    26   1 H        1.443     0.235     0.932     1.507
    27   1 H        0.930    -0.059     4.326     3.252
    28   1 H        0.926     0.049     2.334     2.389
    29   1 H        0.932    -0.158     8.120     4.455
    30   1 H        1.240    -0.302    22.678     7.435
    31   1 H        2.753     0.431     0.421     1.013
    32   1 H        1.861     0.152     1.369     1.826
    33   1 H        1.443     0.115     1.645     2.002
    34   1 H        2.544     0.459     0.381     0.963
    35   1 H        0.925     0.044     2.395     2.420
    36   1 H        0.925     0.030     2.585     2.514
    37   1 H        2.115     0.352     0.570     1.179
    38   1 H        0.921    -0.015     3.327     2.853
    39   1 H        0.955     0.054     2.266     2.353
    40   1 H        1.659     0.276     0.779     1.378

 Mol. C6AA /au·bohr⁶  :      20928.498201
 Mol. C8AA /au·bohr⁸  :     511650.893571
 Mol. α(0) /au        :        210.571799


Wiberg/Mayer (AO) data.
largest (>0.10) Wiberg bond orders for each atom

 ---------------------------------------------------------------------------
     #   Z sym  total        # sym  WBO       # sym  WBO       # sym  WBO
 ---------------------------------------------------------------------------
     1   6 C    3.624 --    28 H    0.894    25 F    0.893    27 H    0.761
                            26 H    0.732    22 C    0.168
     2   6 C    3.605 --    25 F    1.278    29 H    0.694    22 C    0.512
                            30 H    0.464     3 C    0.331
     3   6 C    3.871 --    19 S    1.741    22 C    0.647    32 H    0.510
                             2 C    0.331    18 N    0.160     4 C    0.103
     4   6 C    3.896 --    19 S    1.068    33 H    0.805    18 N    0.726
                             5 N    0.550    20 O    0.175     3 C    0.103
     5   7 N    3.615 --     6 C    0.845    15 S    0.713    16 O    0.649
                             4 C    0.550     9 C    0.371
     6   6 C    3.686 --     7 C    1.228    35 H    0.947     5 N    0.845
                             8 N    0.128    21 O    0.103
     7   6 C    3.521 --     6 C    1.228    36 H    0.947     8 N    0.548
                            12 F    0.483
     8   7 N    3.612 --    11 C    1.458     7 C    0.548    12 F    0.539
                            14 F    0.279     9 C    0.175     6 C    0.128
                            13 F    0.125
     9   6 C    3.868 --    15 S    1.394    11 C    1.291     5 N    0.371
                            37 H    0.279     8 N    0.175
    10   6 C    3.635 --    14 F    0.935    38 H    0.892    39 H    0.888
                            40 H    0.596
    11   6 C    3.837 --     8 N    1.458     9 C    1.291    13 F    0.510
    12   9 F    1.462 --     8 N    0.539     7 C    0.483    14 F    0.117
    13   9 F    0.859 --    11 C    0.510     8 N    0.125
    14   9 F    1.830 --    10 C    0.935     8 N    0.279    40 H    0.118
                            12 F    0.117
    15  16 S    6.057 --     9 C    1.394    17 O    1.355    16 O    0.854
                             5 N    0.713    18 N    0.619    37 H    0.392
    16   8 O    1.877 --    15 S    0.854     5 N    0.649
    17   8 O    1.771 --    15 S    1.355
    18   7 N    2.736 --     4 C    0.726    15 S    0.619    19 S    0.302
                            32 H    0.226     3 C    0.160    20 O    0.104
    19  16 S    6.295 --     3 C    1.741    21 O    1.213     4 C    1.068
                            20 O    0.765    31 H    0.304    18 N    0.302
                            22 C    0.279
    20   8 O    2.028 --    19 S    0.765    34 H    0.710     4 C    0.175
                            18 N    0.104
    21   8 O    1.824 --    19 S    1.213     6 C    0.103
    22   6 C    3.778 --    24 F    0.727    23 F    0.667     3 C    0.647
                             2 C    0.512    19 S    0.279    31 H    0.243
                             1 C    0.168    30 H    0.136
    23   9 F    0.986 --    22 C    0.667
    24   9 F    0.948 --    22 C    0.727
    25   9 F    2.501 --     2 C    1.278     1 C    0.893
    26   1 H    0.935 --     1 C    0.732
    27   1 H    0.930 --     1 C    0.761
    28   1 H    0.996 --     1 C    0.894
    29   1 H    0.957 --     2 C    0.694
    30   1 H    0.889 --     2 C    0.464    22 C    0.136
    31   1 H    0.813 --    19 S    0.304    22 C    0.243
    32   1 H    0.970 --     3 C    0.510    18 N    0.226
    33   1 H    0.986 --     4 C    0.805
    34   1 H    0.790 --    20 O    0.710
    35   1 H    0.997 --     6 C    0.947
    36   1 H    0.997 --     7 C    0.947
    37   1 H    0.875 --    15 S    0.392     9 C    0.279
    38   1 H    0.998 --    10 C    0.892
    39   1 H    0.997 --    10 C    0.888
    40   1 H    0.905 --    10 C    0.596    14 F    0.118
 ---------------------------------------------------------------------------

Topologies differ in total number of bonds
Writing topology from bond orders to xtbtopo.mol

molecular dipole:
                 x           y           z       tot (Debye)
 q only:        0.855       1.458      -0.746
   full:        1.248       1.801      -1.606       6.905
molecular quadrupole (traceless):
                xx          xy          yy          xz          yz          zz
 q only:       59.908     -10.510     -23.347      -6.060       1.809     -36.562
  q+dip:       66.251     -10.931     -22.892     -20.090       3.895     -43.359
   full:       69.654     -12.490     -24.356     -18.282       2.953     -45.298


           -------------------------------------------------
          | TOTAL ENERGY              -69.225038277533 Eh   |
          | GRADIENT NORM              25.161568938173 Eh/α |
          | HOMO-LUMO GAP               0.213667760430 eV   |
           -------------------------------------------------
########################################################################
[WARNING] Runtime exception occurred
-2- restart_readRestart: Dimension missmatch in restart file.
-1- restart_readRestart: Number of electron missmatch in restart file.
########################################################################

------------------------------------------------------------------------
 unit  open   action     filename
  129 false : read       dft_tmp\mol_276.xyz
  129 false : read       dft_tmp\mol_276.xyz
  129 false : read       dft_tmp\mol_276.xyz
  129 false : read       C:\Users\nkapa\Downloads\xtb-6.7.1pre-windows-x86_64\xtb-6.7.1\share\xtb\param_gfn2-xtb.txt
  129 false : read       xtbrestart
  129 false : replaced   charges
  129 false : replaced   wbo
  129 false : replaced   xtbtopo.mol
  129 false : replaced   xtbrestart

------------------------------------------------------------------------
 * finished run on 2025/06/25 at 12:06:46.863     
------------------------------------------------------------------------
 total:
 * wall-time:     0 d,  0 h,  0 min,  0.071 sec
 *  cpu-time:     0 d,  0 h,  0 min,  0.500 sec
 * ratio c/w:     7.042 speedup
 SCF:
 * wall-time:     0 d,  0 h,  0 min,  0.045 sec
 *  cpu-time:     0 d,  0 h,  0 min,  0.375 sec
 * ratio c/w:     8.333 speedup

normal termination of xtb
