      -----------------------------------------------------------      
     |                   =====================                   |     
     |                           x T B                           |     
     |                   =====================                   |     
     |                         S. Grimme                         |     
     |          Mulliken Center for Theoretical Chemistry        |     
     |                    University of Bonn                     |     
      -----------------------------------------------------------      

   * xtb version 6.7.1pre (5071a88) compiled by 'Marcel@Raven' on 2024-07-23

   xtb is free software: you can redistribute it and/or modify it under
   the terms of the GNU Lesser General Public License as published by
   the Free Software Foundation, either version 3 of the License, or
   (at your option) any later version.
   
   xtb is distributed in the hope that it will be useful,
   but WITHOUT ANY WARRANTY; without even the implied warranty of
   MERCHANTABILITY or FITNESS FOR A PARTICULAR PURPOSE.  See the
   GNU Lesser General Public License for more details.
   
   Cite this work as:
   * C. Bannwarth, E. Caldeweyher, S. Ehlert, A. Hansen, P. Pracht,
     J. Seibert, S. Spicher, S. Grimme, WIREs Comput. Mol. Sci., 2020, 11,
     e01493. DOI: 10.1002/wcms.1493
   
   for GFN2-xTB:
   * C. Bannwarth, S. Ehlert and S. Grimme., J. Chem. Theory Comput., 2019,
     15, 1652-1671. DOI: 10.1021/acs.jctc.8b01176
   for GFN1-xTB:
   * S. Grimme, C. Bannwarth, P. Shushkov, J. Chem. Theory Comput., 2017,
     13, 1989-2009. DOI: 10.1021/acs.jctc.7b00118
   for GFN0-xTB:
   * P. Pracht, E. Caldeweyher, S. Ehlert, S. Grimme, ChemRxiv, 2019, preprint.
     DOI: 10.26434/chemrxiv.8326202.v1
   for GFN-FF:
   * S. Spicher and S. Grimme, Angew. Chem. Int. Ed., 2020, 59, 15665-15673.
     DOI: 10.1002/anie.202004239
   
   for ALPB and GBSA implicit solvation:
   * S. Ehlert, M. Stahn, S. Spicher, S. Grimme, J. Chem. Theory Comput.,
     2021, 17, 4250-4261. DOI: 10.1021/acs.jctc.1c00471
   
   for ddCOSMO and CPCM-X implicit solvation:
   * M. Stahn, S. Ehlert, S. Grimme, J. Phys. Chem. A,
     2023, XX, XXXX-XXXX. DOI: 10.1021/acs.jpca.3c04382
   
   for DFT-D4:
   * E. Caldeweyher, C. Bannwarth and S. Grimme, J. Chem. Phys., 2017,
     147, 034112. DOI: 10.1063/1.4993215
   * E. Caldeweyher, S. Ehlert, A. Hansen, H. Neugebauer, S. Spicher,
     C. Bannwarth and S. Grimme, J. Chem. Phys., 2019, 150, 154122.
     DOI: 10.1063/1.5090222
   * E. Caldeweyher, J.-M. Mewes, S. Ehlert and S. Grimme, Phys. Chem. Chem. Phys.
     2020, 22, 8499-8512. DOI: 10.1039/D0CP00502A
   
   for sTDA-xTB:
   * S. Grimme and C. Bannwarth, J. Chem. Phys., 2016, 145, 054103.
     DOI: 10.1063/1.4959605
   
   in the mass-spec context:
   * V. Asgeirsson, C. Bauer and S. Grimme, Chem. Sci., 2017, 8, 4879.
     DOI: 10.1039/c7sc00601b
   * J. Koopman and S. Grimme, ACS Omega 2019, 4, 12, 15120-15133.
     DOI: 10.1021/acsomega.9b02011
   
   for metadynamics refer to:
   * S. Grimme, J. Chem. Theory Comput., 2019, 155, 2847-2862
     DOI: 10.1021/acs.jctc.9b00143
   
   for SPH calculations refer to:
   * S. Spicher and S. Grimme, J. Chem. Theory Comput., 2021, 17, 1701-1714
     DOI: 10.1021/acs.jctc.0c01306
   
   for ONIOM refer to:
   * C. Plett, A. Katbashev, S. Ehlert, S. Grimme, M. Bursch,
     Phys. Chem. Chem. Phys., 2023, 25, 17860-17868. DOI: 10.1039/D3CP02178E
   
   for DIPRO refer to:
   * J. Kohn, N. Gildemeister, S. Grimme, D. Fazzi, A. Hansen,
     J. Chem. Phys., 2023, just accepted.
   
   for PTB refer to:
   * S. Grimme, M. Mueller, A. Hansen, J. Chem. Phys., 2023, 158, 124111.
     DOI: 10.1063/5.0137838
   
   with help from (in alphabetical order)
   P. Atkinson, C. Bannwarth, F. Bohle, G. Brandenburg, E. Caldeweyher
   M. Checinski, S. Dohm, S. Ehlert, S. Ehrlich, I. Gerasimov, C. Hölzer
   A. Katbashev, J. Kohn, J. Koopman, C. Lavigne, S. Lehtola, F. März, M. Müller,
   F. Musil, H. Neugebauer, J. Pisarek, C. Plett, P. Pracht, F. Pultar,
   J. Seibert, P. Shushkov, S. Spicher, M. Stahn, M. Steiner, T. Strunk,
   J. Stückrath, T. Rose, and J. Unsleber
   
 * started run on 2025/06/25 at 12:06:06.177     
$$$$$$$$$$$$$$$$$$$$$$$$$$$$$$$$$$$$$$$$$$$$$$$$$$$$$$$$$$$$$$$$$$$$$$$$
 CONSTRAINTS & SCANS: DEBUG SECTION
$$$$$$$$$$$$$$$$$$$$$$$$$$$$$$$$$$$$$$$$$$$$$$$$$$$$$$$$$$$$$$$$$$$$$$$$
   ID    Z sym.   atoms
    1    6 C      1-3, 5
    2    8 O      4
    3    1 H      6-13
$$$$$$$$$$$$$$$$$$$$$$$$$$$$$$$$$$$$$$$$$$$$$$$$$$$$$$$$$$$$$$$$$$$$$$$$

           -------------------------------------------------
          |                Calculation Setup                |
           -------------------------------------------------

          program call               : C:\Users\nkapa\Downloads\xtb-6.7.1pre-windows-x86_64\xtb-6.7.1\bin\xtb.EXE dft_tmp\mol_8.xyz --gfn2 --parallel 8 --verbose
          coordinate file            : dft_tmp\mol_8.xyz
          xtbhome directory          : C:\Users\nkapa\AppData\Roaming\SPB_Data
          path for xtb               : C:\Users\nkapa\Downloads\xtb-6.7.1pre-windows-x86_64\xtb-6.7.1\share\xtb
          xcontrol input file        : dft_tmp\mol_8.xyz
          omp threads                :                     8


           -------------------------------------------------
          |                 G F N 2 - x T B                 |
           -------------------------------------------------

        Reference                      10.1021/acs.jctc.8b01176
      * Hamiltonian:
        H0-scaling (s, p, d)           1.850000    2.230000    2.230000
        zeta-weighting                 0.500000
      * Dispersion:
        s8                             2.700000
        a1                             0.520000
        a2                             5.000000
        s9                             5.000000
      * Repulsion:
        kExp                           1.500000    1.000000
        rExp                           1.000000
      * Coulomb:
        alpha                          2.000000
        third order                    shell-resolved
        anisotropic                    true
        a3                             3.000000
        a5                             4.000000
        cn-shift                       1.200000
        cn-exp                         4.000000
        max-rad                        5.000000


          ...................................................
          :                      SETUP                      :
          :.................................................:
          :  # basis functions                  28          :
          :  # atomic orbitals                  28          :
          :  # shells                           18          :
          :  # electrons                        30          :
          :  max. iterations                   250          :
          :  Hamiltonian                  GFN2-xTB          :
          :  restarted?                      false          :
          :  GBSA solvation                  false          :
          :  PC potential                    false          :
          :  electronic temp.          300.0000000     K    :
          :  accuracy                    1.0000000          :
          :  -> integral cutoff          0.2500000E+02      :
          :  -> integral neglect         0.1000000E-07      :
          :  -> SCF convergence          0.1000000E-05 Eh   :
          :  -> wf. convergence          0.1000000E-03 e    :
          :  Broyden damping             0.4000000          :
          :  net charge                          0          :
          :  unpaired electrons                  0          :
          ...................................................

 iter      E             dE          RMSdq      gap      omega  full diag
   1    -16.8310369 -0.168310E+02  0.396E+00   11.89       0.0  T
   2    -16.8767217 -0.456849E-01  0.217E+00   11.27       1.0  T
   3    -16.8771376 -0.415909E-03  0.959E-01   11.36       1.0  T
   4    -16.8772796 -0.141964E-03  0.983E-02   11.39       1.0  T
   5    -16.8772922 -0.125902E-04  0.577E-02   11.40       1.0  T
   6    -16.8772933 -0.115264E-05  0.570E-03   11.40       4.9  T
   7    -16.8772935 -0.115802E-06  0.331E-03   11.40       8.4  T
   8    -16.8772935 -0.236145E-07  0.140E-03   11.40      19.8  T
   9    -16.8772935 -0.460498E-08  0.125E-04   11.40     222.3  T
  10    -16.8772935 -0.130811E-10  0.482E-05   11.40     574.9  T

   *** convergence criteria satisfied after 10 iterations ***

         #    Occupation            Energy/Eh            Energy/eV
      -------------------------------------------------------------
         1        2.0000           -0.6961657             -18.9436
       ...           ...                  ...                  ...
         9        2.0000           -0.5043789             -13.7248
        10        2.0000           -0.4964288             -13.5085
        11        2.0000           -0.4686301             -12.7521
        12        2.0000           -0.4591319             -12.4936
        13        2.0000           -0.4531905             -12.3319
        14        2.0000           -0.4345212             -11.8239
        15        2.0000           -0.3872289             -10.5370 (HOMO)
        16                          0.0317401               0.8637 (LUMO)
        17                          0.0527318               1.4349
        18                          0.0708151               1.9270
        19                          0.0894243               2.4334
        20                          0.1201185               3.2686
       ...                                ...                  ...
        28                          0.2951967               8.0327
      -------------------------------------------------------------
                  HL-Gap            0.4189691 Eh           11.4007 eV
             Fermi-level           -0.1777444 Eh           -4.8367 eV

 SCC (total)                   0 d,  0 h,  0 min,  0.005 sec
 SCC setup                      ...        0 min,  0.001 sec ( 19.998%)
 Dispersion                     ...        0 min,  0.000 sec (  0.000%)
 classical contributions        ...        0 min,  0.000 sec (  0.000%)
 integral evaluation            ...        0 min,  0.000 sec (  0.000%)
 iterations                     ...        0 min,  0.003 sec ( 59.999%)
 molecular gradient             ...        0 min,  0.001 sec ( 20.003%)
 printout                       ...        0 min,  0.000 sec (  0.000%)

         :::::::::::::::::::::::::::::::::::::::::::::::::::::
         ::                     SUMMARY                     ::
         :::::::::::::::::::::::::::::::::::::::::::::::::::::
         :: total energy             -16.702278626604 Eh    ::
         :: gradient norm              0.060468289265 Eh/a0 ::
         :: HOMO-LUMO gap             11.400728607913 eV    ::
         ::.................................................::
         :: HOMO orbital eigv.       -10.537035953497 eV    ::
         :: LUMO orbital eigv.         0.863692654416 eV    ::
         ::.................................................::
         :: SCC energy               -16.877288233413 Eh    ::
         :: -> isotropic ES            0.019018920012 Eh    ::
         :: -> anisotropic ES          0.003828967260 Eh    ::
         :: -> anisotropic XC          0.004990920852 Eh    ::
         :: -> dispersion             -0.006575010025 Eh    ::
         :: repulsion energy           0.175009606809 Eh    ::
         :: add. restraining           0.000000000000 Eh    ::
         :: total charge               0.000000000000 e     ::
         ::.................................................::
         :: atomisation energy         3.297105853159 Eh    ::
         :::::::::::::::::::::::::::::::::::::::::::::::::::::

           -------------------------------------------------
          |                Property Printout                |
           -------------------------------------------------

    * Orbital Energies and Occupations

         #    Occupation            Energy/Eh            Energy/eV
      -------------------------------------------------------------
         1        2.0000           -0.6961657             -18.9436
       ...           ...                  ...                  ...
         3        2.0000           -0.6359220             -17.3043
         4        2.0000           -0.5896863             -16.0462
         5        2.0000           -0.5830194             -15.8648
         6        2.0000           -0.5581342             -15.1876
         7        2.0000           -0.5490894             -14.9415
         8        2.0000           -0.5119653             -13.9313
         9        2.0000           -0.5043789             -13.7248
        10        2.0000           -0.4964288             -13.5085
        11        2.0000           -0.4686301             -12.7521
        12        2.0000           -0.4591319             -12.4936
        13        2.0000           -0.4531905             -12.3319
        14        2.0000           -0.4345212             -11.8239
        15        2.0000           -0.3872289             -10.5370 (HOMO)
        16                          0.0317401               0.8637 (LUMO)
        17                          0.0527318               1.4349
        18                          0.0708151               1.9270
        19                          0.0894243               2.4334
        20                          0.1201185               3.2686
        21                          0.1263745               3.4388
        22                          0.1369427               3.7264
        23                          0.1532839               4.1711
        24                          0.1919138               5.2222
        25                          0.2164860               5.8909
        26                          0.2410907               6.5604
       ...                                ...                  ...
        28                          0.2951967               8.0327
      -------------------------------------------------------------
                  HL-Gap            0.4189691 Eh           11.4007 eV
             Fermi-level           -0.1777444 Eh           -4.8367 eV

     #   Z          covCN         q      C6AA      α(0)
     1   6 C        3.826    -0.058    21.599     6.613
     2   6 C        3.826    -0.058    21.599     6.613
     3   6 C        3.768     0.085    19.204     6.246
     4   8 O        1.701    -0.316    19.279     5.928
     5   6 C        3.768     0.085    19.204     6.246
     6   1 H        0.921     0.037     2.493     2.469
     7   1 H        0.921     0.036     2.504     2.475
     8   1 H        0.921     0.037     2.493     2.469
     9   1 H        0.921     0.036     2.504     2.475
    10   1 H        0.921     0.026     2.645     2.543
    11   1 H        0.921     0.032     2.552     2.498
    12   1 H        0.921     0.026     2.645     2.543
    13   1 H        0.921     0.032     2.552     2.498

 Mol. C6AA /au·bohr⁶  :       1235.043558
 Mol. C8AA /au·bohr⁸  :      25902.232907
 Mol. α(0) /au        :         51.617106


Wiberg/Mayer (AO) data.
largest (>0.10) Wiberg bond orders for each atom

 ---------------------------------------------------------------------------
     #   Z sym  total        # sym  WBO       # sym  WBO       # sym  WBO
 ---------------------------------------------------------------------------
     1   6 C    3.998 --     2 C    1.011     5 C    1.000     6 H    0.979
                             7 H    0.979
     2   6 C    3.998 --     1 C    1.011     3 C    1.000     8 H    0.979
                             9 H    0.979
     3   6 C    3.958 --     2 C    1.000     4 O    0.984    11 H    0.972
                            10 H    0.970
     4   8 O    2.067 --     5 C    0.984     3 C    0.984
     5   6 C    3.958 --     1 C    1.000     4 O    0.984    13 H    0.972
                            12 H    0.970
     6   1 H    0.999 --     1 C    0.979
     7   1 H    0.999 --     1 C    0.979
     8   1 H    0.999 --     2 C    0.979
     9   1 H    0.999 --     2 C    0.979
    10   1 H    0.999 --     3 C    0.970
    11   1 H    0.999 --     3 C    0.972
    12   1 H    0.999 --     5 C    0.970
    13   1 H    0.999 --     5 C    0.972
 ---------------------------------------------------------------------------

Topologies differ in total number of bonds
Writing topology from bond orders to xtbtopo.mol

molecular dipole:
                 x           y           z       tot (Debye)
 q only:       -0.024      -0.650       0.101
   full:       -0.029      -0.790       0.122       2.033
molecular quadrupole (traceless):
                xx          xy          yy          xz          yz          zz
 q only:        2.776      -0.217      -2.926      -0.029       0.490       0.150
  q+dip:        1.720      -0.247      -4.778      -0.001       1.243       3.058
   full:        2.576      -0.268      -4.344      -0.048       0.972       1.768


           -------------------------------------------------
          | TOTAL ENERGY              -16.702278626604 Eh   |
          | GRADIENT NORM               0.060468289265 Eh/α |
          | HOMO-LUMO GAP              11.400728607913 eV   |
           -------------------------------------------------
########################################################################
[WARNING] Runtime exception occurred
-2- restart_readRestart: Dimension missmatch in restart file.
-1- restart_readRestart: Number of electron missmatch in restart file.
########################################################################

------------------------------------------------------------------------
 unit  open   action     filename
  129 false : read       dft_tmp\mol_8.xyz
  129 false : read       dft_tmp\mol_8.xyz
  129 false : read       dft_tmp\mol_8.xyz
  129 false : read       C:\Users\nkapa\Downloads\xtb-6.7.1pre-windows-x86_64\xtb-6.7.1\share\xtb\param_gfn2-xtb.txt
  129 false : read       xtbrestart
  129 false : replaced   charges
  129 false : replaced   wbo
  129 false : replaced   xtbtopo.mol
  129 false : replaced   xtbrestart

------------------------------------------------------------------------
 * finished run on 2025/06/25 at 12:06:06.213     
------------------------------------------------------------------------
 total:
 * wall-time:     0 d,  0 h,  0 min,  0.035 sec
 *  cpu-time:     0 d,  0 h,  0 min,  0.125 sec
 * ratio c/w:     3.571 speedup
 SCF:
 * wall-time:     0 d,  0 h,  0 min,  0.005 sec
 *  cpu-time:     0 d,  0 h,  0 min,  0.125 sec
 * ratio c/w:    24.999 speedup

normal termination of xtb
