70

C -12.269811 -0.282092 -0.280319
C -11.774490 -1.542607 -0.594680
C -10.399711 -1.769612 -0.622736
C -9.486265 -0.733007 -0.318694
C -9.995215 0.570437 -0.030167
C -11.394277 0.768086 -0.006581
C -9.094272 1.637009 0.216050
C -7.717653 1.400179 0.163151
C -7.206308 0.121582 -0.100271
C -8.083348 -0.957563 -0.320663
N -7.530938 -2.274052 -0.516742
N -5.789939 -0.109064 -0.122883
N -4.937450 0.826344 0.012996
C -3.527649 0.574189 -0.009893
C -3.014562 -0.733371 -0.056482
C -1.633930 -0.948355 -0.087295
C -0.739007 0.137234 -0.081015
C -1.261011 1.443962 -0.029483
C -2.642287 1.657211 0.012374
C 0.730429 -0.092559 -0.145239
C 1.618847 0.734089 0.568597
C 3.000021 0.532592 0.485742
C 3.519057 -0.506437 -0.305530
C 2.640544 -1.339544 -1.004939
C 1.260006 -1.132912 -0.932698
N 4.928678 -0.731523 -0.420472
N 5.784411 0.065216 0.086018
C 7.199889 -0.152687 -0.018317
C 8.088032 0.844907 0.429517
C 9.491264 0.634895 0.324343
C 10.422760 1.584568 0.808430
C 11.793912 1.371367 0.681218
C 12.270399 0.208095 0.085068
C 11.379809 -0.755963 -0.380700
C 9.983790 -0.571751 -0.261657
C 9.070713 -1.562835 -0.701931
C 7.697287 -1.338365 -0.572215
S 9.602330 -3.108319 -1.397945
O 10.473631 -3.832404 -0.409143
O 8.420027 -3.980827 -1.723268
O 10.461938 -2.823253 -2.813810
N 7.542797 2.066847 0.961874
S -9.641392 3.287361 0.575493
O -10.475447 3.283552 1.825875
O -10.452686 3.810668 -0.577032
O -8.328570 4.311678 0.813117
Na 0.000000 0.000000 0.000000
Na 0.000000 0.000000 0.000000
H -13.339103 -0.113121 -0.259666
H -12.461308 -2.347561 -0.828188
H -10.076644 -2.758052 -0.909617
H -11.833027 1.730085 0.218053
H -7.032255 2.218584 0.339552
H -6.516337 -2.411263 -0.724259
H -8.072534 -3.142653 -0.319896
H -3.678198 -1.588775 -0.059943
H -1.266815 -1.966442 -0.100898
H -0.604112 2.302758 -0.046040
H -3.024360 2.670231 0.044527
H 1.247476 1.530627 1.201819
H 3.659991 1.185431 1.043811
H 3.028877 -2.141989 -1.620171
H 0.609551 -1.774445 -1.512627
H 10.121949 2.492868 1.308405
H 12.491522 2.112014 1.054756
H 13.337068 0.048708 -0.009158
H 11.804722 -1.642027 -0.831104
H 7.001689 -2.097735 -0.902917
H 8.084444 2.953230 1.016716
H 6.533051 2.146561 1.214015
