      -----------------------------------------------------------      
     |                   =====================                   |     
     |                           x T B                           |     
     |                   =====================                   |     
     |                         S. Grimme                         |     
     |          Mulliken Center for Theoretical Chemistry        |     
     |                    University of Bonn                     |     
      -----------------------------------------------------------      

   * xtb version 6.7.1pre (5071a88) compiled by 'Marcel@Raven' on 2024-07-23

   xtb is free software: you can redistribute it and/or modify it under
   the terms of the GNU Lesser General Public License as published by
   the Free Software Foundation, either version 3 of the License, or
   (at your option) any later version.
   
   xtb is distributed in the hope that it will be useful,
   but WITHOUT ANY WARRANTY; without even the implied warranty of
   MERCHANTABILITY or FITNESS FOR A PARTICULAR PURPOSE.  See the
   GNU Lesser General Public License for more details.
   
   Cite this work as:
   * C. Bannwarth, E. Caldeweyher, S. Ehlert, A. Hansen, P. Pracht,
     J. Seibert, S. Spicher, S. Grimme, WIREs Comput. Mol. Sci., 2020, 11,
     e01493. DOI: 10.1002/wcms.1493
   
   for GFN2-xTB:
   * C. Bannwarth, S. Ehlert and S. Grimme., J. Chem. Theory Comput., 2019,
     15, 1652-1671. DOI: 10.1021/acs.jctc.8b01176
   for GFN1-xTB:
   * S. Grimme, C. Bannwarth, P. Shushkov, J. Chem. Theory Comput., 2017,
     13, 1989-2009. DOI: 10.1021/acs.jctc.7b00118
   for GFN0-xTB:
   * P. Pracht, E. Caldeweyher, S. Ehlert, S. Grimme, ChemRxiv, 2019, preprint.
     DOI: 10.26434/chemrxiv.8326202.v1
   for GFN-FF:
   * S. Spicher and S. Grimme, Angew. Chem. Int. Ed., 2020, 59, 15665-15673.
     DOI: 10.1002/anie.202004239
   
   for ALPB and GBSA implicit solvation:
   * S. Ehlert, M. Stahn, S. Spicher, S. Grimme, J. Chem. Theory Comput.,
     2021, 17, 4250-4261. DOI: 10.1021/acs.jctc.1c00471
   
   for ddCOSMO and CPCM-X implicit solvation:
   * M. Stahn, S. Ehlert, S. Grimme, J. Phys. Chem. A,
     2023, XX, XXXX-XXXX. DOI: 10.1021/acs.jpca.3c04382
   
   for DFT-D4:
   * E. Caldeweyher, C. Bannwarth and S. Grimme, J. Chem. Phys., 2017,
     147, 034112. DOI: 10.1063/1.4993215
   * E. Caldeweyher, S. Ehlert, A. Hansen, H. Neugebauer, S. Spicher,
     C. Bannwarth and S. Grimme, J. Chem. Phys., 2019, 150, 154122.
     DOI: 10.1063/1.5090222
   * E. Caldeweyher, J.-M. Mewes, S. Ehlert and S. Grimme, Phys. Chem. Chem. Phys.
     2020, 22, 8499-8512. DOI: 10.1039/D0CP00502A
   
   for sTDA-xTB:
   * S. Grimme and C. Bannwarth, J. Chem. Phys., 2016, 145, 054103.
     DOI: 10.1063/1.4959605
   
   in the mass-spec context:
   * V. Asgeirsson, C. Bauer and S. Grimme, Chem. Sci., 2017, 8, 4879.
     DOI: 10.1039/c7sc00601b
   * J. Koopman and S. Grimme, ACS Omega 2019, 4, 12, 15120-15133.
     DOI: 10.1021/acsomega.9b02011
   
   for metadynamics refer to:
   * S. Grimme, J. Chem. Theory Comput., 2019, 155, 2847-2862
     DOI: 10.1021/acs.jctc.9b00143
   
   for SPH calculations refer to:
   * S. Spicher and S. Grimme, J. Chem. Theory Comput., 2021, 17, 1701-1714
     DOI: 10.1021/acs.jctc.0c01306
   
   for ONIOM refer to:
   * C. Plett, A. Katbashev, S. Ehlert, S. Grimme, M. Bursch,
     Phys. Chem. Chem. Phys., 2023, 25, 17860-17868. DOI: 10.1039/D3CP02178E
   
   for DIPRO refer to:
   * J. Kohn, N. Gildemeister, S. Grimme, D. Fazzi, A. Hansen,
     J. Chem. Phys., 2023, just accepted.
   
   for PTB refer to:
   * S. Grimme, M. Mueller, A. Hansen, J. Chem. Phys., 2023, 158, 124111.
     DOI: 10.1063/5.0137838
   
   with help from (in alphabetical order)
   P. Atkinson, C. Bannwarth, F. Bohle, G. Brandenburg, E. Caldeweyher
   M. Checinski, S. Dohm, S. Ehlert, S. Ehrlich, I. Gerasimov, C. Hölzer
   A. Katbashev, J. Kohn, J. Koopman, C. Lavigne, S. Lehtola, F. März, M. Müller,
   F. Musil, H. Neugebauer, J. Pisarek, C. Plett, P. Pracht, F. Pultar,
   J. Seibert, P. Shushkov, S. Spicher, M. Stahn, M. Steiner, T. Strunk,
   J. Stückrath, T. Rose, and J. Unsleber
   
 * started run on 2025/06/25 at 12:06:24.981     
$$$$$$$$$$$$$$$$$$$$$$$$$$$$$$$$$$$$$$$$$$$$$$$$$$$$$$$$$$$$$$$$$$$$$$$$
 CONSTRAINTS & SCANS: DEBUG SECTION
$$$$$$$$$$$$$$$$$$$$$$$$$$$$$$$$$$$$$$$$$$$$$$$$$$$$$$$$$$$$$$$$$$$$$$$$
   ID    Z sym.   atoms
    1    6 C      1-4
    2    8 O      5, 6, 8
    3    7 N      7
    4    1 H      9-17
$$$$$$$$$$$$$$$$$$$$$$$$$$$$$$$$$$$$$$$$$$$$$$$$$$$$$$$$$$$$$$$$$$$$$$$$

           -------------------------------------------------
          |                Calculation Setup                |
           -------------------------------------------------

          program call               : C:\Users\nkapa\Downloads\xtb-6.7.1pre-windows-x86_64\xtb-6.7.1\bin\xtb.EXE dft_tmp\mol_125.xyz --gfn2 --parallel 8 --verbose
          coordinate file            : dft_tmp\mol_125.xyz
          xtbhome directory          : C:\Users\nkapa\AppData\Roaming\SPB_Data
          path for xtb               : C:\Users\nkapa\Downloads\xtb-6.7.1pre-windows-x86_64\xtb-6.7.1\share\xtb
          xcontrol input file        : dft_tmp\mol_125.xyz
          omp threads                :                     8


           -------------------------------------------------
          |                 G F N 2 - x T B                 |
           -------------------------------------------------

        Reference                      10.1021/acs.jctc.8b01176
      * Hamiltonian:
        H0-scaling (s, p, d)           1.850000    2.230000    2.230000
        zeta-weighting                 0.500000
      * Dispersion:
        s8                             2.700000
        a1                             0.520000
        a2                             5.000000
        s9                             5.000000
      * Repulsion:
        kExp                           1.500000    1.000000
        rExp                           1.000000
      * Coulomb:
        alpha                          2.000000
        third order                    shell-resolved
        anisotropic                    true
        a3                             3.000000
        a5                             4.000000
        cn-shift                       1.200000
        cn-exp                         4.000000
        max-rad                        5.000000


          ...................................................
          :                      SETUP                      :
          :.................................................:
          :  # basis functions                  41          :
          :  # atomic orbitals                  41          :
          :  # shells                           25          :
          :  # electrons                        48          :
          :  max. iterations                   250          :
          :  Hamiltonian                  GFN2-xTB          :
          :  restarted?                      false          :
          :  GBSA solvation                  false          :
          :  PC potential                    false          :
          :  electronic temp.          300.0000000     K    :
          :  accuracy                    1.0000000          :
          :  -> integral cutoff          0.2500000E+02      :
          :  -> integral neglect         0.1000000E-07      :
          :  -> SCF convergence          0.1000000E-05 Eh   :
          :  -> wf. convergence          0.1000000E-03 e    :
          :  Broyden damping             0.4000000          :
          :  net charge                          0          :
          :  unpaired electrons                  0          :
          ...................................................

 iter      E             dE          RMSdq      gap      omega  full diag
   1    -28.3950849 -0.283951E+02  0.426E+00    3.64       0.0  T
   2    -28.4428848 -0.477999E-01  0.219E+00    3.44       1.0  T
   3    -28.4455054 -0.262061E-02  0.129E+00    3.88       1.0  T
   4    -28.4514966 -0.599122E-02  0.250E-01    3.48       1.0  T
   5    -28.4519141 -0.417455E-03  0.932E-02    3.46       1.0  T
   6    -28.4519423 -0.281978E-04  0.411E-02    3.45       1.0  T
   7    -28.4519451 -0.287530E-05  0.962E-03    3.45       2.5  T
   8    -28.4519453 -0.128794E-06  0.396E-03    3.45       6.1  T
   9    -28.4519453 -0.297325E-07  0.126E-03    3.45      19.3  T
  10    -28.4519453 -0.172799E-08  0.431E-04    3.45      56.3  T
  11    -28.4519453 -0.654673E-09  0.150E-04    3.45     161.3  T

   *** convergence criteria satisfied after 11 iterations ***

         #    Occupation            Energy/Eh            Energy/eV
      -------------------------------------------------------------
         1        2.0000           -0.7237316             -19.6937
       ...           ...                  ...                  ...
        18        2.0000           -0.4774917             -12.9932
        19        2.0000           -0.4615294             -12.5589
        20        2.0000           -0.4568106             -12.4305
        21        2.0000           -0.4479977             -12.1906
        22        2.0000           -0.4211558             -11.4602
        23        2.0000           -0.4131644             -11.2428
        24        2.0000           -0.3822907             -10.4027 (HOMO)
        25                         -0.2555254              -6.9532 (LUMO)
        26                         -0.0487736              -1.3272
        27                         -0.0015380              -0.0419
        28                          0.0320064               0.8709
        29                          0.0649898               1.7685
       ...                                ...                  ...
        41                          0.4626555              12.5895
      -------------------------------------------------------------
                  HL-Gap            0.1267653 Eh            3.4495 eV
             Fermi-level           -0.3189081 Eh           -8.6779 eV

 SCC (total)                   0 d,  0 h,  0 min,  0.005 sec
 SCC setup                      ...        0 min,  0.000 sec (  0.000%)
 Dispersion                     ...        0 min,  0.000 sec (  0.000%)
 classical contributions        ...        0 min,  0.000 sec (  0.000%)
 integral evaluation            ...        0 min,  0.001 sec ( 19.999%)
 iterations                     ...        0 min,  0.003 sec ( 60.002%)
 molecular gradient             ...        0 min,  0.001 sec ( 19.999%)
 printout                       ...        0 min,  0.000 sec (  0.000%)

         :::::::::::::::::::::::::::::::::::::::::::::::::::::
         ::                     SUMMARY                     ::
         :::::::::::::::::::::::::::::::::::::::::::::::::::::
         :: total energy             -28.239880768950 Eh    ::
         :: gradient norm              0.143534979111 Eh/a0 ::
         :: HOMO-LUMO gap              3.449458978296 eV    ::
         ::.................................................::
         :: HOMO orbital eigv.       -10.402659426077 eV    ::
         :: LUMO orbital eigv.        -6.953200447781 eV    ::
         ::.................................................::
         :: SCC energy               -28.451894816459 Eh    ::
         :: -> isotropic ES            0.084450668999 Eh    ::
         :: -> anisotropic ES          0.006609828766 Eh    ::
         :: -> anisotropic XC          0.006172507793 Eh    ::
         :: -> dispersion             -0.011127083619 Eh    ::
         :: repulsion energy           0.212014047510 Eh    ::
         :: add. restraining           0.000000000000 Eh    ::
         :: total charge              -0.000000000000 e     ::
         ::.................................................::
         :: atomisation energy         4.378963204226 Eh    ::
         :::::::::::::::::::::::::::::::::::::::::::::::::::::

           -------------------------------------------------
          |                Property Printout                |
           -------------------------------------------------

    * Orbital Energies and Occupations

         #    Occupation            Energy/Eh            Energy/eV
      -------------------------------------------------------------
         1        2.0000           -0.7237316             -19.6937
       ...           ...                  ...                  ...
        12        2.0000           -0.5493691             -14.9491
        13        2.0000           -0.5318920             -14.4735
        14        2.0000           -0.5192556             -14.1297
        15        2.0000           -0.5045986             -13.7308
        16        2.0000           -0.5005985             -13.6220
        17        2.0000           -0.4858455             -13.2205
        18        2.0000           -0.4774917             -12.9932
        19        2.0000           -0.4615294             -12.5589
        20        2.0000           -0.4568106             -12.4305
        21        2.0000           -0.4479977             -12.1906
        22        2.0000           -0.4211558             -11.4602
        23        2.0000           -0.4131644             -11.2428
        24        2.0000           -0.3822907             -10.4027 (HOMO)
        25                         -0.2555254              -6.9532 (LUMO)
        26                         -0.0487736              -1.3272
        27                         -0.0015380              -0.0419
        28                          0.0320064               0.8709
        29                          0.0649898               1.7685
        30                          0.0960743               2.6143
        31                          0.1139750               3.1014
        32                          0.1183950               3.2217
        33                          0.1216899               3.3114
        34                          0.1512504               4.1157
        35                          0.1629187               4.4332
       ...                                ...                  ...
        41                          0.4626555              12.5895
      -------------------------------------------------------------
                  HL-Gap            0.1267653 Eh            3.4495 eV
             Fermi-level           -0.3189081 Eh           -8.6779 eV

     #   Z          covCN         q      C6AA      α(0)
     1   6 C        3.740    -0.120    22.877     6.824
     2   6 C        3.722     0.127    18.614     6.161
     3   6 C        3.779     0.045    19.836     6.345
     4   6 C        2.689     0.348    21.088     7.515
     5   8 O        0.856    -0.396    21.603     6.232
     6   8 O        1.647    -0.373    20.336     6.087
     7   7 N        2.626    -0.323    28.313     7.903
     8   8 O        1.652    -0.438    21.600     6.274
     9   1 H        0.922     0.061     2.190     2.314
    10   1 H        0.922     0.037     2.495     2.471
    11   1 H        0.922     0.062     2.171     2.304
    12   1 H        0.921     0.014     2.822     2.627
    13   1 H        0.921     0.037     2.493     2.469
    14   1 H        0.796     0.330     0.639     1.257
    15   1 H        0.857     0.143     1.447     1.884
    16   1 H        0.857     0.148     1.413     1.863
    17   1 H        0.801     0.296     0.733     1.345

 Mol. C6AA /au·bohr⁶  :       2398.085608
 Mol. C8AA /au·bohr⁸  :      50701.042044
 Mol. α(0) /au        :         71.875333


Wiberg/Mayer (AO) data.
largest (>0.10) Wiberg bond orders for each atom

 ---------------------------------------------------------------------------
     #   Z sym  total        # sym  WBO       # sym  WBO       # sym  WBO
 ---------------------------------------------------------------------------
     1   6 C    3.992 --     2 C    0.999    10 H    0.984     9 H    0.984
                            11 H    0.982
     2   6 C    3.957 --     1 C    0.999     8 O    0.995    12 H    0.960
                             3 C    0.947
     3   6 C    3.988 --     7 N    1.014     4 C    0.979    13 H    0.953
                             2 C    0.947
     4   6 C    3.916 --     5 O    1.762     6 O    1.127     3 C    0.979
     5   8 O    2.027 --     4 C    1.762     6 O    0.177
     6   8 O    2.196 --     4 C    1.127    14 H    0.864     5 O    0.177
     7   7 N    2.997 --     3 C    1.014    16 H    0.964    15 H    0.964
     8   8 O    1.962 --     2 C    0.995    17 H    0.896
     9   1 H    0.996 --     1 C    0.984
    10   1 H    0.999 --     1 C    0.984
    11   1 H    0.996 --     1 C    0.982
    12   1 H    1.000 --     2 C    0.960
    13   1 H    0.999 --     3 C    0.953
    14   1 H    0.891 --     6 O    0.864
    15   1 H    0.979 --     7 N    0.964
    16   1 H    0.978 --     7 N    0.964
    17   1 H    0.912 --     8 O    0.896
 ---------------------------------------------------------------------------

Topologies differ in total number of bonds
Writing topology from bond orders to xtbtopo.mol

molecular dipole:
                 x           y           z       tot (Debye)
 q only:       -0.467      -0.539      -0.607
   full:       -0.404      -0.844      -0.924       3.342
molecular quadrupole (traceless):
                xx          xy          yy          xz          yz          zz
 q only:        5.502       0.705       1.049      -0.263      -3.760      -6.551
  q+dip:        8.349       1.134       3.667       1.937      -3.585     -12.016
   full:        8.293       0.603       3.334       2.114      -4.405     -11.627


           -------------------------------------------------
          | TOTAL ENERGY              -28.239880768950 Eh   |
          | GRADIENT NORM               0.143534979111 Eh/α |
          | HOMO-LUMO GAP               3.449458978296 eV   |
           -------------------------------------------------
########################################################################
[WARNING] Runtime exception occurred
-2- restart_readRestart: Dimension missmatch in restart file.
-1- restart_readRestart: Number of electron missmatch in restart file.
########################################################################

------------------------------------------------------------------------
 unit  open   action     filename
  129 false : read       dft_tmp\mol_125.xyz
  129 false : read       dft_tmp\mol_125.xyz
  129 false : read       dft_tmp\mol_125.xyz
  129 false : read       C:\Users\nkapa\Downloads\xtb-6.7.1pre-windows-x86_64\xtb-6.7.1\share\xtb\param_gfn2-xtb.txt
  129 false : read       xtbrestart
  129 false : replaced   charges
  129 false : replaced   wbo
  129 false : replaced   xtbtopo.mol
  129 false : replaced   xtbrestart

------------------------------------------------------------------------
 * finished run on 2025/06/25 at 12:06:25.015     
------------------------------------------------------------------------
 total:
 * wall-time:     0 d,  0 h,  0 min,  0.033 sec
 *  cpu-time:     0 d,  0 h,  0 min,  0.125 sec
 * ratio c/w:     3.788 speedup
 SCF:
 * wall-time:     0 d,  0 h,  0 min,  0.006 sec
 *  cpu-time:     0 d,  0 h,  0 min,  0.016 sec
 * ratio c/w:     2.604 speedup

normal termination of xtb
