      -----------------------------------------------------------      
     |                   =====================                   |     
     |                           x T B                           |     
     |                   =====================                   |     
     |                         S. Grimme                         |     
     |          Mulliken Center for Theoretical Chemistry        |     
     |                    University of Bonn                     |     
      -----------------------------------------------------------      

   * xtb version 6.7.1pre (5071a88) compiled by 'Marcel@Raven' on 2024-07-23

   xtb is free software: you can redistribute it and/or modify it under
   the terms of the GNU Lesser General Public License as published by
   the Free Software Foundation, either version 3 of the License, or
   (at your option) any later version.
   
   xtb is distributed in the hope that it will be useful,
   but WITHOUT ANY WARRANTY; without even the implied warranty of
   MERCHANTABILITY or FITNESS FOR A PARTICULAR PURPOSE.  See the
   GNU Lesser General Public License for more details.
   
   Cite this work as:
   * C. Bannwarth, E. Caldeweyher, S. Ehlert, A. Hansen, P. Pracht,
     J. Seibert, S. Spicher, S. Grimme, WIREs Comput. Mol. Sci., 2020, 11,
     e01493. DOI: 10.1002/wcms.1493
   
   for GFN2-xTB:
   * C. Bannwarth, S. Ehlert and S. Grimme., J. Chem. Theory Comput., 2019,
     15, 1652-1671. DOI: 10.1021/acs.jctc.8b01176
   for GFN1-xTB:
   * S. Grimme, C. Bannwarth, P. Shushkov, J. Chem. Theory Comput., 2017,
     13, 1989-2009. DOI: 10.1021/acs.jctc.7b00118
   for GFN0-xTB:
   * P. Pracht, E. Caldeweyher, S. Ehlert, S. Grimme, ChemRxiv, 2019, preprint.
     DOI: 10.26434/chemrxiv.8326202.v1
   for GFN-FF:
   * S. Spicher and S. Grimme, Angew. Chem. Int. Ed., 2020, 59, 15665-15673.
     DOI: 10.1002/anie.202004239
   
   for ALPB and GBSA implicit solvation:
   * S. Ehlert, M. Stahn, S. Spicher, S. Grimme, J. Chem. Theory Comput.,
     2021, 17, 4250-4261. DOI: 10.1021/acs.jctc.1c00471
   
   for ddCOSMO and CPCM-X implicit solvation:
   * M. Stahn, S. Ehlert, S. Grimme, J. Phys. Chem. A,
     2023, XX, XXXX-XXXX. DOI: 10.1021/acs.jpca.3c04382
   
   for DFT-D4:
   * E. Caldeweyher, C. Bannwarth and S. Grimme, J. Chem. Phys., 2017,
     147, 034112. DOI: 10.1063/1.4993215
   * E. Caldeweyher, S. Ehlert, A. Hansen, H. Neugebauer, S. Spicher,
     C. Bannwarth and S. Grimme, J. Chem. Phys., 2019, 150, 154122.
     DOI: 10.1063/1.5090222
   * E. Caldeweyher, J.-M. Mewes, S. Ehlert and S. Grimme, Phys. Chem. Chem. Phys.
     2020, 22, 8499-8512. DOI: 10.1039/D0CP00502A
   
   for sTDA-xTB:
   * S. Grimme and C. Bannwarth, J. Chem. Phys., 2016, 145, 054103.
     DOI: 10.1063/1.4959605
   
   in the mass-spec context:
   * V. Asgeirsson, C. Bauer and S. Grimme, Chem. Sci., 2017, 8, 4879.
     DOI: 10.1039/c7sc00601b
   * J. Koopman and S. Grimme, ACS Omega 2019, 4, 12, 15120-15133.
     DOI: 10.1021/acsomega.9b02011
   
   for metadynamics refer to:
   * S. Grimme, J. Chem. Theory Comput., 2019, 155, 2847-2862
     DOI: 10.1021/acs.jctc.9b00143
   
   for SPH calculations refer to:
   * S. Spicher and S. Grimme, J. Chem. Theory Comput., 2021, 17, 1701-1714
     DOI: 10.1021/acs.jctc.0c01306
   
   for ONIOM refer to:
   * C. Plett, A. Katbashev, S. Ehlert, S. Grimme, M. Bursch,
     Phys. Chem. Chem. Phys., 2023, 25, 17860-17868. DOI: 10.1039/D3CP02178E
   
   for DIPRO refer to:
   * J. Kohn, N. Gildemeister, S. Grimme, D. Fazzi, A. Hansen,
     J. Chem. Phys., 2023, just accepted.
   
   for PTB refer to:
   * S. Grimme, M. Mueller, A. Hansen, J. Chem. Phys., 2023, 158, 124111.
     DOI: 10.1063/5.0137838
   
   with help from (in alphabetical order)
   P. Atkinson, C. Bannwarth, F. Bohle, G. Brandenburg, E. Caldeweyher
   M. Checinski, S. Dohm, S. Ehlert, S. Ehrlich, I. Gerasimov, C. Hölzer
   A. Katbashev, J. Kohn, J. Koopman, C. Lavigne, S. Lehtola, F. März, M. Müller,
   F. Musil, H. Neugebauer, J. Pisarek, C. Plett, P. Pracht, F. Pultar,
   J. Seibert, P. Shushkov, S. Spicher, M. Stahn, M. Steiner, T. Strunk,
   J. Stückrath, T. Rose, and J. Unsleber
   
 * started run on 2025/06/25 at 12:06:43.948     
$$$$$$$$$$$$$$$$$$$$$$$$$$$$$$$$$$$$$$$$$$$$$$$$$$$$$$$$$$$$$$$$$$$$$$$$
 CONSTRAINTS & SCANS: DEBUG SECTION
$$$$$$$$$$$$$$$$$$$$$$$$$$$$$$$$$$$$$$$$$$$$$$$$$$$$$$$$$$$$$$$$$$$$$$$$
   ID    Z sym.   atoms
    1    6 C      1, 3-8, 10, 12
    2    8 O      2, 11, 13
    3    7 N      9
    4    1 H      14-20
$$$$$$$$$$$$$$$$$$$$$$$$$$$$$$$$$$$$$$$$$$$$$$$$$$$$$$$$$$$$$$$$$$$$$$$$

           -------------------------------------------------
          |                Calculation Setup                |
           -------------------------------------------------

          program call               : C:\Users\nkapa\Downloads\xtb-6.7.1pre-windows-x86_64\xtb-6.7.1\bin\xtb.EXE dft_tmp\mol_255.xyz --gfn2 --parallel 8 --verbose
          coordinate file            : dft_tmp\mol_255.xyz
          xtbhome directory          : C:\Users\nkapa\AppData\Roaming\SPB_Data
          path for xtb               : C:\Users\nkapa\Downloads\xtb-6.7.1pre-windows-x86_64\xtb-6.7.1\share\xtb
          xcontrol input file        : dft_tmp\mol_255.xyz
          omp threads                :                     8


           -------------------------------------------------
          |                 G F N 2 - x T B                 |
           -------------------------------------------------

        Reference                      10.1021/acs.jctc.8b01176
      * Hamiltonian:
        H0-scaling (s, p, d)           1.850000    2.230000    2.230000
        zeta-weighting                 0.500000
      * Dispersion:
        s8                             2.700000
        a1                             0.520000
        a2                             5.000000
        s9                             5.000000
      * Repulsion:
        kExp                           1.500000    1.000000
        rExp                           1.000000
      * Coulomb:
        alpha                          2.000000
        third order                    shell-resolved
        anisotropic                    true
        a3                             3.000000
        a5                             4.000000
        cn-shift                       1.200000
        cn-exp                         4.000000
        max-rad                        5.000000


          ...................................................
          :                      SETUP                      :
          :.................................................:
          :  # basis functions                  59          :
          :  # atomic orbitals                  59          :
          :  # shells                           33          :
          :  # electrons                        66          :
          :  max. iterations                   250          :
          :  Hamiltonian                  GFN2-xTB          :
          :  restarted?                      false          :
          :  GBSA solvation                  false          :
          :  PC potential                    false          :
          :  electronic temp.          300.0000000     K    :
          :  accuracy                    1.0000000          :
          :  -> integral cutoff          0.2500000E+02      :
          :  -> integral neglect         0.1000000E-07      :
          :  -> SCF convergence          0.1000000E-05 Eh   :
          :  -> wf. convergence          0.1000000E-03 e    :
          :  Broyden damping             0.4000000          :
          :  net charge                          0          :
          :  unpaired electrons                  0          :
          ...................................................

 iter      E             dE          RMSdq      gap      omega  full diag
   1    -38.2834583 -0.382835E+02  0.537E+00    1.20       0.0  T
   2    -38.3505891 -0.671308E-01  0.294E+00    1.48       1.0  T
   3    -38.3531911 -0.260206E-02  0.168E+00    1.41       1.0  T
   4    -38.3609838 -0.779262E-02  0.404E-01    1.35       1.0  T
   5    -38.3641153 -0.313154E-02  0.119E-01    1.44       1.0  T
   6    -38.3642033 -0.880027E-04  0.624E-02    1.45       1.0  T
   7    -38.3642224 -0.190636E-04  0.285E-02    1.45       1.0  T
   8    -38.3642267 -0.435287E-05  0.107E-02    1.45       2.1  T
   9    -38.3642276 -0.830142E-06  0.496E-03    1.45       4.5  T
  10    -38.3642278 -0.220037E-06  0.210E-03    1.45      10.7  T
  11    -38.3642278 -0.320845E-07  0.817E-04    1.45      27.4  T
  12    -38.3642278 -0.572508E-08  0.395E-04    1.45      56.7  T

   *** convergence criteria satisfied after 12 iterations ***

         #    Occupation            Energy/Eh            Energy/eV
      -------------------------------------------------------------
         1        2.0000           -0.7264737             -19.7684
       ...           ...                  ...                  ...
        27        2.0000           -0.4832861             -13.1509
        28        2.0000           -0.4599412             -12.5156
        29        2.0000           -0.4502588             -12.2522
        30        2.0000           -0.4468581             -12.1596
        31        2.0000           -0.4419058             -12.0249
        32        2.0000           -0.4046012             -11.0098
        33        2.0000           -0.3969680             -10.8020 (HOMO)
        34                         -0.3437318              -9.3534 (LUMO)
        35                         -0.2655547              -7.2261
        36                         -0.2359432              -6.4203
        37                         -0.1856583              -5.0520
        38                         -0.1142591              -3.1091
       ...                                ...                  ...
        59                          0.6757924              18.3892
      -------------------------------------------------------------
                  HL-Gap            0.0532361 Eh            1.4486 eV
             Fermi-level           -0.3703499 Eh          -10.0777 eV

 SCC (total)                   0 d,  0 h,  0 min,  0.007 sec
 SCC setup                      ...        0 min,  0.001 sec ( 14.285%)
 Dispersion                     ...        0 min,  0.000 sec (  0.000%)
 classical contributions        ...        0 min,  0.000 sec (  0.000%)
 integral evaluation            ...        0 min,  0.000 sec (  0.000%)
 iterations                     ...        0 min,  0.005 sec ( 71.431%)
 molecular gradient             ...        0 min,  0.001 sec ( 14.285%)
 printout                       ...        0 min,  0.000 sec (  0.000%)

         :::::::::::::::::::::::::::::::::::::::::::::::::::::
         ::                     SUMMARY                     ::
         :::::::::::::::::::::::::::::::::::::::::::::::::::::
         :: total energy             -37.929456932436 Eh    ::
         :: gradient norm              0.182518770885 Eh/a0 ::
         :: HOMO-LUMO gap              1.448628916167 eV    ::
         ::.................................................::
         :: HOMO orbital eigv.       -10.802048055354 eV    ::
         :: LUMO orbital eigv.        -9.353419139187 eV    ::
         ::.................................................::
         :: SCC energy               -38.364263364942 Eh    ::
         :: -> isotropic ES            0.068887049681 Eh    ::
         :: -> anisotropic ES          0.003231401332 Eh    ::
         :: -> anisotropic XC          0.008321499069 Eh    ::
         :: -> dispersion             -0.018342582699 Eh    ::
         :: repulsion energy           0.434806432506 Eh    ::
         :: add. restraining           0.000000000000 Eh    ::
         :: total charge               0.000000000000 e     ::
         ::.................................................::
         :: atomisation energy         6.741107572763 Eh    ::
         :::::::::::::::::::::::::::::::::::::::::::::::::::::

           -------------------------------------------------
          |                Property Printout                |
           -------------------------------------------------

    * Orbital Energies and Occupations

         #    Occupation            Energy/Eh            Energy/eV
      -------------------------------------------------------------
         1        2.0000           -0.7264737             -19.7684
       ...           ...                  ...                  ...
        21        2.0000           -0.5203098             -14.1584
        22        2.0000           -0.5170132             -14.0686
        23        2.0000           -0.5157869             -14.0353
        24        2.0000           -0.5099764             -13.8772
        25        2.0000           -0.4976260             -13.5411
        26        2.0000           -0.4885982             -13.2954
        27        2.0000           -0.4832861             -13.1509
        28        2.0000           -0.4599412             -12.5156
        29        2.0000           -0.4502588             -12.2522
        30        2.0000           -0.4468581             -12.1596
        31        2.0000           -0.4419058             -12.0249
        32        2.0000           -0.4046012             -11.0098
        33        2.0000           -0.3969680             -10.8020 (HOMO)
        34                         -0.3437318              -9.3534 (LUMO)
        35                         -0.2655547              -7.2261
        36                         -0.2359432              -6.4203
        37                         -0.1856583              -5.0520
        38                         -0.1142591              -3.1091
        39                         -0.0683000              -1.8585
        40                         -0.0454464              -1.2367
        41                          0.0553844               1.5071
        42                          0.0749080               2.0384
        43                          0.0901696               2.4536
        44                          0.1098410               2.9889
       ...                                ...                  ...
        59                          0.6757924              18.3892
      -------------------------------------------------------------
                  HL-Gap            0.0532361 Eh            1.4486 eV
             Fermi-level           -0.3703499 Eh          -10.0777 eV

     #   Z          covCN         q      C6AA      α(0)
     1   6 C        3.617     0.036    20.428     6.520
     2   8 O        1.700    -0.273    18.530     5.812
     3   6 C        2.837     0.141    24.927     8.182
     4   6 C        2.908    -0.028    28.705     8.785
     5   6 C        3.031    -0.027    28.639     8.778
     6   6 C        3.043     0.062    26.570     8.454
     7   6 C        2.907    -0.048    29.193     8.859
     8   6 C        2.910    -0.050    29.243     8.867
     9   7 N        2.702    -0.166    24.598     7.366
    10   6 C        2.873     0.255    22.733     7.816
    11   8 O        0.856    -0.354    20.777     6.111
    12   6 C        2.887     0.213    23.503     7.948
    13   8 O        0.856    -0.312    19.992     5.995
    14   1 H        0.922     0.044     2.401     2.423
    15   1 H        0.922     0.044     2.401     2.423
    16   1 H        0.922     0.071     2.078     2.254
    17   1 H        0.925     0.087     1.906     2.159
    18   1 H        0.925     0.054     2.276     2.359
    19   1 H        0.925     0.059     2.210     2.325
    20   1 H        0.858     0.193     1.143     1.675

 Mol. C6AA /au·bohr⁶  :       5460.085314
 Mol. C8AA /au·bohr⁸  :     132037.519424
 Mol. α(0) /au        :        115.112358


Wiberg/Mayer (AO) data.
largest (>0.10) Wiberg bond orders for each atom

 ---------------------------------------------------------------------------
     #   Z sym  total        # sym  WBO       # sym  WBO       # sym  WBO
 ---------------------------------------------------------------------------
     1   6 C    3.940 --     2 O    0.982    15 H    0.977    14 H    0.977
                            16 H    0.977
     2   8 O    2.217 --     3 C    1.056     1 C    0.982
     3   6 C    3.933 --     4 C    1.367     8 C    1.357     2 O    1.056
     4   6 C    3.985 --     5 C    1.385     3 C    1.367    17 H    0.962
     5   6 C    3.986 --     4 C    1.385     6 C    1.300    12 C    1.070
     6   6 C    3.963 --     7 C    1.397     5 C    1.300     9 N    1.068
     7   6 C    3.988 --     8 C    1.427     6 C    1.397    18 H    0.968
     8   6 C    3.985 --     7 C    1.427     3 C    1.357    19 H    0.967
     9   7 N    3.471 --    10 C    1.163     6 C    1.068    20 H    0.932
                            11 O    0.175
    10   6 C    3.947 --    11 O    1.725     9 N    1.163    12 C    0.973
    11   8 O    2.054 --    10 C    1.725     9 N    0.175
    12   6 C    3.944 --    13 O    1.784     5 C    1.070    10 C    0.973
    13   8 O    2.075 --    12 C    1.784
    14   1 H    0.998 --     1 C    0.977
    15   1 H    0.998 --     1 C    0.977
    16   1 H    0.994 --     1 C    0.977
    17   1 H    0.992 --     4 C    0.962
    18   1 H    0.997 --     7 C    0.968
    19   1 H    0.996 --     8 C    0.967
    20   1 H    0.962 --     9 N    0.932
 ---------------------------------------------------------------------------

Topologies differ in total number of bonds
Writing topology from bond orders to xtbtopo.mol

molecular dipole:
                 x           y           z       tot (Debye)
 q only:       -2.489      -1.598      -0.346
   full:       -2.675      -2.075      -0.409       8.668
molecular quadrupole (traceless):
                xx          xy          yy          xz          yz          zz
 q only:      -12.494     -10.375       5.950      -2.238      -0.686       6.544
  q+dip:      -14.910     -12.930       8.845      -2.626      -0.477       6.065
   full:      -15.978     -12.715       6.387      -2.942      -1.091       9.591


           -------------------------------------------------
          | TOTAL ENERGY              -37.929456932436 Eh   |
          | GRADIENT NORM               0.182518770885 Eh/α |
          | HOMO-LUMO GAP               1.448628916167 eV   |
           -------------------------------------------------
########################################################################
[WARNING] Runtime exception occurred
-2- restart_readRestart: Dimension missmatch in restart file.
-1- restart_readRestart: Number of electron missmatch in restart file.
########################################################################

------------------------------------------------------------------------
 unit  open   action     filename
  129 false : read       dft_tmp\mol_255.xyz
  129 false : read       dft_tmp\mol_255.xyz
  129 false : read       dft_tmp\mol_255.xyz
  129 false : read       C:\Users\nkapa\Downloads\xtb-6.7.1pre-windows-x86_64\xtb-6.7.1\share\xtb\param_gfn2-xtb.txt
  129 false : read       xtbrestart
  129 false : replaced   charges
  129 false : replaced   wbo
  129 false : replaced   xtbtopo.mol
  129 false : replaced   xtbrestart

------------------------------------------------------------------------
 * finished run on 2025/06/25 at 12:06:43.974     
------------------------------------------------------------------------
 total:
 * wall-time:     0 d,  0 h,  0 min,  0.026 sec
 *  cpu-time:     0 d,  0 h,  0 min,  0.141 sec
 * ratio c/w:     5.409 speedup
 SCF:
 * wall-time:     0 d,  0 h,  0 min,  0.007 sec
 *  cpu-time:     0 d,  0 h,  0 min,  0.000 sec
 * ratio c/w:     0.000 speedup

normal termination of xtb
