17

C 1.607506 0.712149 0.544468
C 0.846177 -0.480952 -0.052255
C -0.611253 -0.110078 -0.442558
C -1.410179 0.315287 0.758222
O -1.680338 -0.513079 1.669516
O -1.839549 1.634015 0.871730
N -1.291535 -1.230485 -1.098053
O 1.547815 -0.984353 -1.161994
H 2.657131 0.418294 0.757745
H 1.139613 1.037207 1.497548
H 1.613679 1.566489 -0.165628
H 0.818130 -1.283096 0.717758
H -0.583000 0.743886 -1.156478
H -2.372195 1.939346 1.677456
H -1.158952 -2.101145 -0.532648
H -0.853589 -1.394093 -2.033583
H 1.570539 -0.269392 -1.851247
