19

C 1.642773 -0.772502 -0.296712
C 2.919180 -0.079561 -0.676852
O 3.525796 0.597200 0.138229
C 0.506835 0.234245 -0.038685
C -0.830202 -0.499877 0.235634
C -1.979381 0.484302 0.511251
O -3.169862 -0.225003 0.716529
O -1.168437 -1.346374 -0.836408
O 0.845927 1.028782 1.071795
H 1.818104 -1.394171 0.608303
H 1.362050 -1.451463 -1.130239
H 3.319669 -0.195370 -1.678789
H 0.390998 0.866275 -0.953087
H -0.701955 -1.132637 1.141636
H -2.099097 1.175656 -0.353329
H -1.751093 1.084052 1.420295
H -3.872829 0.456986 0.877063
H -1.277069 -0.778310 -1.643931
H 0.518593 1.947769 0.887296
