      -----------------------------------------------------------      
     |                   =====================                   |     
     |                           x T B                           |     
     |                   =====================                   |     
     |                         S. Grimme                         |     
     |          Mulliken Center for Theoretical Chemistry        |     
     |                    University of Bonn                     |     
      -----------------------------------------------------------      

   * xtb version 6.7.1pre (5071a88) compiled by 'Marcel@Raven' on 2024-07-23

   xtb is free software: you can redistribute it and/or modify it under
   the terms of the GNU Lesser General Public License as published by
   the Free Software Foundation, either version 3 of the License, or
   (at your option) any later version.
   
   xtb is distributed in the hope that it will be useful,
   but WITHOUT ANY WARRANTY; without even the implied warranty of
   MERCHANTABILITY or FITNESS FOR A PARTICULAR PURPOSE.  See the
   GNU Lesser General Public License for more details.
   
   Cite this work as:
   * C. Bannwarth, E. Caldeweyher, S. Ehlert, A. Hansen, P. Pracht,
     J. Seibert, S. Spicher, S. Grimme, WIREs Comput. Mol. Sci., 2020, 11,
     e01493. DOI: 10.1002/wcms.1493
   
   for GFN2-xTB:
   * C. Bannwarth, S. Ehlert and S. Grimme., J. Chem. Theory Comput., 2019,
     15, 1652-1671. DOI: 10.1021/acs.jctc.8b01176
   for GFN1-xTB:
   * S. Grimme, C. Bannwarth, P. Shushkov, J. Chem. Theory Comput., 2017,
     13, 1989-2009. DOI: 10.1021/acs.jctc.7b00118
   for GFN0-xTB:
   * P. Pracht, E. Caldeweyher, S. Ehlert, S. Grimme, ChemRxiv, 2019, preprint.
     DOI: 10.26434/chemrxiv.8326202.v1
   for GFN-FF:
   * S. Spicher and S. Grimme, Angew. Chem. Int. Ed., 2020, 59, 15665-15673.
     DOI: 10.1002/anie.202004239
   
   for ALPB and GBSA implicit solvation:
   * S. Ehlert, M. Stahn, S. Spicher, S. Grimme, J. Chem. Theory Comput.,
     2021, 17, 4250-4261. DOI: 10.1021/acs.jctc.1c00471
   
   for ddCOSMO and CPCM-X implicit solvation:
   * M. Stahn, S. Ehlert, S. Grimme, J. Phys. Chem. A,
     2023, XX, XXXX-XXXX. DOI: 10.1021/acs.jpca.3c04382
   
   for DFT-D4:
   * E. Caldeweyher, C. Bannwarth and S. Grimme, J. Chem. Phys., 2017,
     147, 034112. DOI: 10.1063/1.4993215
   * E. Caldeweyher, S. Ehlert, A. Hansen, H. Neugebauer, S. Spicher,
     C. Bannwarth and S. Grimme, J. Chem. Phys., 2019, 150, 154122.
     DOI: 10.1063/1.5090222
   * E. Caldeweyher, J.-M. Mewes, S. Ehlert and S. Grimme, Phys. Chem. Chem. Phys.
     2020, 22, 8499-8512. DOI: 10.1039/D0CP00502A
   
   for sTDA-xTB:
   * S. Grimme and C. Bannwarth, J. Chem. Phys., 2016, 145, 054103.
     DOI: 10.1063/1.4959605
   
   in the mass-spec context:
   * V. Asgeirsson, C. Bauer and S. Grimme, Chem. Sci., 2017, 8, 4879.
     DOI: 10.1039/c7sc00601b
   * J. Koopman and S. Grimme, ACS Omega 2019, 4, 12, 15120-15133.
     DOI: 10.1021/acsomega.9b02011
   
   for metadynamics refer to:
   * S. Grimme, J. Chem. Theory Comput., 2019, 155, 2847-2862
     DOI: 10.1021/acs.jctc.9b00143
   
   for SPH calculations refer to:
   * S. Spicher and S. Grimme, J. Chem. Theory Comput., 2021, 17, 1701-1714
     DOI: 10.1021/acs.jctc.0c01306
   
   for ONIOM refer to:
   * C. Plett, A. Katbashev, S. Ehlert, S. Grimme, M. Bursch,
     Phys. Chem. Chem. Phys., 2023, 25, 17860-17868. DOI: 10.1039/D3CP02178E
   
   for DIPRO refer to:
   * J. Kohn, N. Gildemeister, S. Grimme, D. Fazzi, A. Hansen,
     J. Chem. Phys., 2023, just accepted.
   
   for PTB refer to:
   * S. Grimme, M. Mueller, A. Hansen, J. Chem. Phys., 2023, 158, 124111.
     DOI: 10.1063/5.0137838
   
   with help from (in alphabetical order)
   P. Atkinson, C. Bannwarth, F. Bohle, G. Brandenburg, E. Caldeweyher
   M. Checinski, S. Dohm, S. Ehlert, S. Ehrlich, I. Gerasimov, C. Hölzer
   A. Katbashev, J. Kohn, J. Koopman, C. Lavigne, S. Lehtola, F. März, M. Müller,
   F. Musil, H. Neugebauer, J. Pisarek, C. Plett, P. Pracht, F. Pultar,
   J. Seibert, P. Shushkov, S. Spicher, M. Stahn, M. Steiner, T. Strunk,
   J. Stückrath, T. Rose, and J. Unsleber
   
 * started run on 2025/06/25 at 12:06:21.736     
$$$$$$$$$$$$$$$$$$$$$$$$$$$$$$$$$$$$$$$$$$$$$$$$$$$$$$$$$$$$$$$$$$$$$$$$
 CONSTRAINTS & SCANS: DEBUG SECTION
$$$$$$$$$$$$$$$$$$$$$$$$$$$$$$$$$$$$$$$$$$$$$$$$$$$$$$$$$$$$$$$$$$$$$$$$
   ID    Z sym.   atoms
    1    6 C      1-4
    2    8 O      5
    3    1 H      6-15
$$$$$$$$$$$$$$$$$$$$$$$$$$$$$$$$$$$$$$$$$$$$$$$$$$$$$$$$$$$$$$$$$$$$$$$$

           -------------------------------------------------
          |                Calculation Setup                |
           -------------------------------------------------

          program call               : C:\Users\nkapa\Downloads\xtb-6.7.1pre-windows-x86_64\xtb-6.7.1\bin\xtb.EXE dft_tmp\mol_101.xyz --gfn2 --parallel 8 --verbose
          coordinate file            : dft_tmp\mol_101.xyz
          xtbhome directory          : C:\Users\nkapa\AppData\Roaming\SPB_Data
          path for xtb               : C:\Users\nkapa\Downloads\xtb-6.7.1pre-windows-x86_64\xtb-6.7.1\share\xtb
          xcontrol input file        : dft_tmp\mol_101.xyz
          omp threads                :                     8


           -------------------------------------------------
          |                 G F N 2 - x T B                 |
           -------------------------------------------------

        Reference                      10.1021/acs.jctc.8b01176
      * Hamiltonian:
        H0-scaling (s, p, d)           1.850000    2.230000    2.230000
        zeta-weighting                 0.500000
      * Dispersion:
        s8                             2.700000
        a1                             0.520000
        a2                             5.000000
        s9                             5.000000
      * Repulsion:
        kExp                           1.500000    1.000000
        rExp                           1.000000
      * Coulomb:
        alpha                          2.000000
        third order                    shell-resolved
        anisotropic                    true
        a3                             3.000000
        a5                             4.000000
        cn-shift                       1.200000
        cn-exp                         4.000000
        max-rad                        5.000000


          ...................................................
          :                      SETUP                      :
          :.................................................:
          :  # basis functions                  30          :
          :  # atomic orbitals                  30          :
          :  # shells                           20          :
          :  # electrons                        32          :
          :  max. iterations                   250          :
          :  Hamiltonian                  GFN2-xTB          :
          :  restarted?                      false          :
          :  GBSA solvation                  false          :
          :  PC potential                    false          :
          :  electronic temp.          300.0000000     K    :
          :  accuracy                    1.0000000          :
          :  -> integral cutoff          0.2500000E+02      :
          :  -> integral neglect         0.1000000E-07      :
          :  -> SCF convergence          0.1000000E-05 Eh   :
          :  -> wf. convergence          0.1000000E-03 e    :
          :  Broyden damping             0.4000000          :
          :  net charge                          0          :
          :  unpaired electrons                  0          :
          ...................................................

 iter      E             dE          RMSdq      gap      omega  full diag
   1    -17.8683171 -0.178683E+02  0.314E+00   12.39       0.0  T
   2    -17.9051797 -0.368626E-01  0.165E+00   12.19       1.0  T
   3    -17.9058147 -0.634993E-03  0.759E-01   12.21       1.0  T
   4    -17.9059902 -0.175530E-03  0.111E-01   12.19       1.0  T
   5    -17.9060094 -0.191905E-04  0.617E-02   12.21       1.0  T
   6    -17.9060112 -0.177055E-05  0.943E-03   12.22       2.7  T
   7    -17.9060114 -0.225645E-06  0.444E-03   12.22       5.8  T
   8    -17.9060114 -0.231229E-07  0.148E-03   12.22      17.5  T
   9    -17.9060114 -0.182859E-08  0.360E-04   12.22      71.7  T
  10    -17.9060114 -0.404551E-09  0.104E-04   12.22     249.2  T

   *** convergence criteria satisfied after 10 iterations ***

         #    Occupation            Energy/Eh            Energy/eV
      -------------------------------------------------------------
         1        2.0000           -0.6842298             -18.6188
       ...           ...                  ...                  ...
        10        2.0000           -0.4833492             -13.1526
        11        2.0000           -0.4689273             -12.7602
        12        2.0000           -0.4535000             -12.3404
        13        2.0000           -0.4375761             -11.9071
        14        2.0000           -0.4317863             -11.7495
        15        2.0000           -0.4241461             -11.5416
        16        2.0000           -0.4059056             -11.0453 (HOMO)
        17                          0.0431103               1.1731 (LUMO)
        18                          0.0847970               2.3074
        19                          0.0891809               2.4267
        20                          0.1026820               2.7941
        21                          0.1221227               3.3231
       ...                                ...                  ...
        30                          0.2689824               7.3194
      -------------------------------------------------------------
                  HL-Gap            0.4490159 Eh           12.2183 eV
             Fermi-level           -0.1813976 Eh           -4.9361 eV

 SCC (total)                   0 d,  0 h,  0 min,  0.004 sec
 SCC setup                      ...        0 min,  0.000 sec (  0.000%)
 Dispersion                     ...        0 min,  0.000 sec (  0.000%)
 classical contributions        ...        0 min,  0.000 sec (  0.000%)
 integral evaluation            ...        0 min,  0.001 sec ( 24.999%)
 iterations                     ...        0 min,  0.002 sec ( 50.003%)
 molecular gradient             ...        0 min,  0.001 sec ( 24.999%)
 printout                       ...        0 min,  0.000 sec (  0.000%)

         :::::::::::::::::::::::::::::::::::::::::::::::::::::
         ::                     SUMMARY                     ::
         :::::::::::::::::::::::::::::::::::::::::::::::::::::
         :: total energy             -17.717723467438 Eh    ::
         :: gradient norm              0.051731847093 Eh/a0 ::
         :: HOMO-LUMO gap             12.218344324311 eV    ::
         ::.................................................::
         :: HOMO orbital eigv.       -11.045252620690 eV    ::
         :: LUMO orbital eigv.         1.173091703621 eV    ::
         ::.................................................::
         :: SCC energy               -17.905998457197 Eh    ::
         :: -> isotropic ES            0.025718135562 Eh    ::
         :: -> anisotropic ES          0.005369327089 Eh    ::
         :: -> anisotropic XC          0.006727395096 Eh    ::
         :: -> dispersion             -0.007373523105 Eh    ::
         :: repulsion energy           0.188274989759 Eh    ::
         :: add. restraining           0.000000000000 Eh    ::
         :: total charge               0.000000000000 e     ::
         ::.................................................::
         :: atomisation energy         3.525585166120 Eh    ::
         :::::::::::::::::::::::::::::::::::::::::::::::::::::

           -------------------------------------------------
          |                Property Printout                |
           -------------------------------------------------

    * Orbital Energies and Occupations

         #    Occupation            Energy/Eh            Energy/eV
      -------------------------------------------------------------
         1        2.0000           -0.6842298             -18.6188
       ...           ...                  ...                  ...
         4        2.0000           -0.5878926             -15.9974
         5        2.0000           -0.5655701             -15.3899
         6        2.0000           -0.5449136             -14.8279
         7        2.0000           -0.5274658             -14.3531
         8        2.0000           -0.5173833             -14.0787
         9        2.0000           -0.4948949             -13.4668
        10        2.0000           -0.4833492             -13.1526
        11        2.0000           -0.4689273             -12.7602
        12        2.0000           -0.4535000             -12.3404
        13        2.0000           -0.4375761             -11.9071
        14        2.0000           -0.4317863             -11.7495
        15        2.0000           -0.4241461             -11.5416
        16        2.0000           -0.4059056             -11.0453 (HOMO)
        17                          0.0431103               1.1731 (LUMO)
        18                          0.0847970               2.3074
        19                          0.0891809               2.4267
        20                          0.1026820               2.7941
        21                          0.1221227               3.3231
        22                          0.1303637               3.5474
        23                          0.1358759               3.6974
        24                          0.1453895               3.9562
        25                          0.1714927               4.6666
        26                          0.1986363               5.4052
        27                          0.2182055               5.9377
       ...                                ...                  ...
        30                          0.2689824               7.3194
      -------------------------------------------------------------
                  HL-Gap            0.4490159 Eh           12.2183 eV
             Fermi-level           -0.1813976 Eh           -4.9361 eV

     #   Z          covCN         q      C6AA      α(0)
     1   6 C        3.741    -0.097    22.440     6.759
     2   6 C        3.793    -0.048    21.441     6.594
     3   6 C        3.793    -0.064    21.740     6.640
     4   6 C        3.669     0.085    19.403     6.315
     5   8 O        1.652    -0.432    21.491     6.258
     6   1 H        0.921     0.030     2.592     2.518
     7   1 H        0.922     0.031     2.576     2.510
     8   1 H        0.922     0.038     2.475     2.460
     9   1 H        0.921     0.025     2.662     2.552
    10   1 H        0.921     0.043     2.405     2.425
    11   1 H        0.921     0.025     2.657     2.549
    12   1 H        0.921     0.029     2.602     2.522
    13   1 H        0.921     0.007     2.941     2.682
    14   1 H        0.922     0.045     2.389     2.417
    15   1 H        0.801     0.284     0.770     1.379

 Mol. C6AA /au·bohr⁶  :       1469.636036
 Mol. C8AA /au·bohr⁸  :      29927.973133
 Mol. α(0) /au        :         56.580586


Wiberg/Mayer (AO) data.
largest (>0.10) Wiberg bond orders for each atom

 ---------------------------------------------------------------------------
     #   Z sym  total        # sym  WBO       # sym  WBO       # sym  WBO
 ---------------------------------------------------------------------------
     1   6 C    3.997 --     2 C    1.021     7 H    0.987     6 H    0.987
                             8 H    0.986
     2   6 C    3.997 --     1 C    1.021     3 C    1.008     9 H    0.978
                            10 H    0.976
     3   6 C    3.997 --     2 C    1.008     4 C    0.996    11 H    0.977
                            12 H    0.976
     4   6 C    3.958 --     5 O    1.004     3 C    0.996    13 H    0.972
                            14 H    0.969
     5   8 O    1.968 --     4 C    1.004    15 H    0.904
     6   1 H    0.999 --     1 C    0.987
     7   1 H    0.999 --     1 C    0.987
     8   1 H    0.999 --     1 C    0.986
     9   1 H    0.999 --     2 C    0.978
    10   1 H    0.998 --     2 C    0.976
    11   1 H    0.999 --     3 C    0.977
    12   1 H    0.999 --     3 C    0.976
    13   1 H    1.000 --     4 C    0.972
    14   1 H    0.998 --     4 C    0.969
    15   1 H    0.919 --     5 O    0.904
 ---------------------------------------------------------------------------

Topologies differ in total number of bonds
Writing topology from bond orders to xtbtopo.mol

molecular dipole:
                 x           y           z       tot (Debye)
 q only:       -0.087      -0.474       0.000
   full:       -0.059      -0.718      -0.014       1.832
molecular quadrupole (traceless):
                xx          xy          yy          xz          yz          zz
 q only:       -0.366      -3.373      -0.503       0.813      -0.930       0.869
  q+dip:       -0.360      -4.840      -0.520       0.621      -1.493       0.880
   full:       -0.346      -4.894      -0.559       0.911      -1.440       0.905


           -------------------------------------------------
          | TOTAL ENERGY              -17.717723467438 Eh   |
          | GRADIENT NORM               0.051731847093 Eh/α |
          | HOMO-LUMO GAP              12.218344324311 eV   |
           -------------------------------------------------
########################################################################
[WARNING] Runtime exception occurred
-3- restart_readRestart: Dimension missmatch in restart file.
-2- restart_readRestart: Multiplicity missmatch in restart file.
-1- restart_readRestart: Number of electron missmatch in restart file.
########################################################################

------------------------------------------------------------------------
 unit  open   action     filename
  129 false : read       dft_tmp\mol_101.xyz
  129 false : read       dft_tmp\mol_101.xyz
  129 false : read       dft_tmp\mol_101.xyz
  129 false : read       C:\Users\nkapa\Downloads\xtb-6.7.1pre-windows-x86_64\xtb-6.7.1\share\xtb\param_gfn2-xtb.txt
  129 false : read       xtbrestart
  129 false : replaced   charges
  129 false : replaced   wbo
  129 false : replaced   xtbtopo.mol
  129 false : replaced   xtbrestart

------------------------------------------------------------------------
 * finished run on 2025/06/25 at 12:06:21.764     
------------------------------------------------------------------------
 total:
 * wall-time:     0 d,  0 h,  0 min,  0.027 sec
 *  cpu-time:     0 d,  0 h,  0 min,  0.141 sec
 * ratio c/w:     5.208 speedup
 SCF:
 * wall-time:     0 d,  0 h,  0 min,  0.004 sec
 *  cpu-time:     0 d,  0 h,  0 min,  0.000 sec
 * ratio c/w:     0.000 speedup

normal termination of xtb
