18

C 2.080181 -0.009649 -0.597006
N 0.610637 -0.058766 -0.596679
C 0.131696 -1.157837 0.258903
C -1.411724 -1.198935 0.258595
O -1.977719 -0.093918 -0.424001
C -1.466287 1.110414 0.111614
C 0.051968 1.226459 -0.133756
H 2.491881 -0.956996 -1.006576
H 2.481302 0.144968 0.429625
H 2.433749 0.815968 -1.251565
H 0.495931 -1.025694 1.303927
H 0.521809 -2.128786 -0.119691
H -1.799710 -1.247935 1.300971
H -1.748705 -2.125848 -0.252478
H -1.984002 1.962474 -0.378007
H -1.692176 1.182082 1.200626
H 0.545923 1.561942 0.807143
H 0.235248 2.000059 -0.911644
