22

C -1.646112 0.058971 0.417182
N -0.813375 -1.160369 0.453014
C 0.315871 -0.940675 1.379332
N 1.132716 0.209356 0.941477
C 0.278825 1.413808 0.900335
N -0.850827 1.219989 -0.031246
C -0.315868 0.940675 -1.379329
N 0.531487 -0.268977 -1.363240
C -0.278823 -1.413808 -0.900333
C 1.646111 -0.058973 -0.417181
H -2.516921 -0.092450 -0.259765
H -2.077631 0.257043 1.424185
H 0.945819 -1.856744 1.438345
H -0.064174 -0.768821 2.411577
H 0.880438 2.298724 0.592957
H -0.102197 1.647429 1.920011
H -1.151777 0.812387 -2.103408
H 0.270138 1.813183 -1.746514
H 0.335515 -2.342293 -0.901116
H -1.113754 -1.603855 -1.611856
H 2.283585 0.787308 -0.759129
H 2.310954 -0.951910 -0.405296
