      -----------------------------------------------------------      
     |                   =====================                   |     
     |                           x T B                           |     
     |                   =====================                   |     
     |                         S. Grimme                         |     
     |          Mulliken Center for Theoretical Chemistry        |     
     |                    University of Bonn                     |     
      -----------------------------------------------------------      

   * xtb version 6.7.1pre (5071a88) compiled by 'Marcel@Raven' on 2024-07-23

   xtb is free software: you can redistribute it and/or modify it under
   the terms of the GNU Lesser General Public License as published by
   the Free Software Foundation, either version 3 of the License, or
   (at your option) any later version.
   
   xtb is distributed in the hope that it will be useful,
   but WITHOUT ANY WARRANTY; without even the implied warranty of
   MERCHANTABILITY or FITNESS FOR A PARTICULAR PURPOSE.  See the
   GNU Lesser General Public License for more details.
   
   Cite this work as:
   * C. Bannwarth, E. Caldeweyher, S. Ehlert, A. Hansen, P. Pracht,
     J. Seibert, S. Spicher, S. Grimme, WIREs Comput. Mol. Sci., 2020, 11,
     e01493. DOI: 10.1002/wcms.1493
   
   for GFN2-xTB:
   * C. Bannwarth, S. Ehlert and S. Grimme., J. Chem. Theory Comput., 2019,
     15, 1652-1671. DOI: 10.1021/acs.jctc.8b01176
   for GFN1-xTB:
   * S. Grimme, C. Bannwarth, P. Shushkov, J. Chem. Theory Comput., 2017,
     13, 1989-2009. DOI: 10.1021/acs.jctc.7b00118
   for GFN0-xTB:
   * P. Pracht, E. Caldeweyher, S. Ehlert, S. Grimme, ChemRxiv, 2019, preprint.
     DOI: 10.26434/chemrxiv.8326202.v1
   for GFN-FF:
   * S. Spicher and S. Grimme, Angew. Chem. Int. Ed., 2020, 59, 15665-15673.
     DOI: 10.1002/anie.202004239
   
   for ALPB and GBSA implicit solvation:
   * S. Ehlert, M. Stahn, S. Spicher, S. Grimme, J. Chem. Theory Comput.,
     2021, 17, 4250-4261. DOI: 10.1021/acs.jctc.1c00471
   
   for ddCOSMO and CPCM-X implicit solvation:
   * M. Stahn, S. Ehlert, S. Grimme, J. Phys. Chem. A,
     2023, XX, XXXX-XXXX. DOI: 10.1021/acs.jpca.3c04382
   
   for DFT-D4:
   * E. Caldeweyher, C. Bannwarth and S. Grimme, J. Chem. Phys., 2017,
     147, 034112. DOI: 10.1063/1.4993215
   * E. Caldeweyher, S. Ehlert, A. Hansen, H. Neugebauer, S. Spicher,
     C. Bannwarth and S. Grimme, J. Chem. Phys., 2019, 150, 154122.
     DOI: 10.1063/1.5090222
   * E. Caldeweyher, J.-M. Mewes, S. Ehlert and S. Grimme, Phys. Chem. Chem. Phys.
     2020, 22, 8499-8512. DOI: 10.1039/D0CP00502A
   
   for sTDA-xTB:
   * S. Grimme and C. Bannwarth, J. Chem. Phys., 2016, 145, 054103.
     DOI: 10.1063/1.4959605
   
   in the mass-spec context:
   * V. Asgeirsson, C. Bauer and S. Grimme, Chem. Sci., 2017, 8, 4879.
     DOI: 10.1039/c7sc00601b
   * J. Koopman and S. Grimme, ACS Omega 2019, 4, 12, 15120-15133.
     DOI: 10.1021/acsomega.9b02011
   
   for metadynamics refer to:
   * S. Grimme, J. Chem. Theory Comput., 2019, 155, 2847-2862
     DOI: 10.1021/acs.jctc.9b00143
   
   for SPH calculations refer to:
   * S. Spicher and S. Grimme, J. Chem. Theory Comput., 2021, 17, 1701-1714
     DOI: 10.1021/acs.jctc.0c01306
   
   for ONIOM refer to:
   * C. Plett, A. Katbashev, S. Ehlert, S. Grimme, M. Bursch,
     Phys. Chem. Chem. Phys., 2023, 25, 17860-17868. DOI: 10.1039/D3CP02178E
   
   for DIPRO refer to:
   * J. Kohn, N. Gildemeister, S. Grimme, D. Fazzi, A. Hansen,
     J. Chem. Phys., 2023, just accepted.
   
   for PTB refer to:
   * S. Grimme, M. Mueller, A. Hansen, J. Chem. Phys., 2023, 158, 124111.
     DOI: 10.1063/5.0137838
   
   with help from (in alphabetical order)
   P. Atkinson, C. Bannwarth, F. Bohle, G. Brandenburg, E. Caldeweyher
   M. Checinski, S. Dohm, S. Ehlert, S. Ehrlich, I. Gerasimov, C. Hölzer
   A. Katbashev, J. Kohn, J. Koopman, C. Lavigne, S. Lehtola, F. März, M. Müller,
   F. Musil, H. Neugebauer, J. Pisarek, C. Plett, P. Pracht, F. Pultar,
   J. Seibert, P. Shushkov, S. Spicher, M. Stahn, M. Steiner, T. Strunk,
   J. Stückrath, T. Rose, and J. Unsleber
   
 * started run on 2025/06/25 at 12:06:42.501     
$$$$$$$$$$$$$$$$$$$$$$$$$$$$$$$$$$$$$$$$$$$$$$$$$$$$$$$$$$$$$$$$$$$$$$$$
 CONSTRAINTS & SCANS: DEBUG SECTION
$$$$$$$$$$$$$$$$$$$$$$$$$$$$$$$$$$$$$$$$$$$$$$$$$$$$$$$$$$$$$$$$$$$$$$$$
   ID    Z sym.   atoms
    1    6 C      1, 2, 4-6, 9-11, 13, 14
    2    7 N      3, 7, 8, 12
    3    1 H      15-22
$$$$$$$$$$$$$$$$$$$$$$$$$$$$$$$$$$$$$$$$$$$$$$$$$$$$$$$$$$$$$$$$$$$$$$$$

           -------------------------------------------------
          |                Calculation Setup                |
           -------------------------------------------------

          program call               : C:\Users\nkapa\Downloads\xtb-6.7.1pre-windows-x86_64\xtb-6.7.1\bin\xtb.EXE dft_tmp\mol_242.xyz --gfn2 --parallel 8 --verbose
          coordinate file            : dft_tmp\mol_242.xyz
          xtbhome directory          : C:\Users\nkapa\AppData\Roaming\SPB_Data
          path for xtb               : C:\Users\nkapa\Downloads\xtb-6.7.1pre-windows-x86_64\xtb-6.7.1\share\xtb
          xcontrol input file        : dft_tmp\mol_242.xyz
          omp threads                :                     8


           -------------------------------------------------
          |                 G F N 2 - x T B                 |
           -------------------------------------------------

        Reference                      10.1021/acs.jctc.8b01176
      * Hamiltonian:
        H0-scaling (s, p, d)           1.850000    2.230000    2.230000
        zeta-weighting                 0.500000
      * Dispersion:
        s8                             2.700000
        a1                             0.520000
        a2                             5.000000
        s9                             5.000000
      * Repulsion:
        kExp                           1.500000    1.000000
        rExp                           1.000000
      * Coulomb:
        alpha                          2.000000
        third order                    shell-resolved
        anisotropic                    true
        a3                             3.000000
        a5                             4.000000
        cn-shift                       1.200000
        cn-exp                         4.000000
        max-rad                        5.000000


          ...................................................
          :                      SETUP                      :
          :.................................................:
          :  # basis functions                  64          :
          :  # atomic orbitals                  64          :
          :  # shells                           36          :
          :  # electrons                        68          :
          :  max. iterations                   250          :
          :  Hamiltonian                  GFN2-xTB          :
          :  restarted?                      false          :
          :  GBSA solvation                  false          :
          :  PC potential                    false          :
          :  electronic temp.          300.0000000     K    :
          :  accuracy                    1.0000000          :
          :  -> integral cutoff          0.2500000E+02      :
          :  -> integral neglect         0.1000000E-07      :
          :  -> SCF convergence          0.1000000E-05 Eh   :
          :  -> wf. convergence          0.1000000E-03 e    :
          :  Broyden damping             0.4000000          :
          :  net charge                          0          :
          :  unpaired electrons                  0          :
          ...................................................

 iter      E             dE          RMSdq      gap      omega  full diag
   1    -37.5792958 -0.375793E+02  0.443E+00    0.80       0.0  T
   2    -37.5999682 -0.206725E-01  0.274E+00    0.67       1.0  T
   3    -37.5937246  0.624364E-02  0.754E-01    0.44       1.0  T
   4    -37.6027636 -0.903902E-02  0.272E-01    0.29       1.0  T
   5    -37.6039497 -0.118604E-02  0.117E-01    0.31       1.0  T
   6    -37.6041269 -0.177289E-03  0.285E-02    0.31       1.0  T
   7    -37.6041284 -0.141569E-05  0.145E-02    0.31       1.5  T
   8    -37.6041291 -0.757316E-06  0.678E-03    0.31       3.1  T
   9    -37.6041295 -0.394175E-06  0.956E-04    0.31      22.3  T
  10    -37.6041295 -0.249209E-09  0.198E-04    0.31     107.5  T

   *** convergence criteria satisfied after 10 iterations ***

         #    Occupation            Energy/Eh            Energy/eV
      -------------------------------------------------------------
         1        2.0000           -0.6706790             -18.2501
       ...           ...                  ...                  ...
        28        2.0000           -0.4491480             -12.2219
        29        2.0000           -0.4296240             -11.6907
        30        2.0000           -0.4294367             -11.6856
        31        2.0000           -0.4257591             -11.5855
        32        2.0000           -0.3773993             -10.2696
        33        2.0000           -0.3772659             -10.2659
        34        1.9948           -0.3438903              -9.3577 (HOMO)
        35        0.0052           -0.3325924              -9.0503 (LUMO)
        36                         -0.2581876              -7.0256
        37                         -0.2526668              -6.8754
        38                         -0.2526177              -6.8741
        39                         -0.2310078              -6.2860
       ...                                ...                  ...
        64                          0.5723690              15.5750
      -------------------------------------------------------------
                  HL-Gap            0.0112979 Eh            0.3074 eV
             Fermi-level           -0.3382414 Eh           -9.2040 eV

 SCC (total)                   0 d,  0 h,  0 min,  0.008 sec
 SCC setup                      ...        0 min,  0.000 sec (  0.000%)
 Dispersion                     ...        0 min,  0.000 sec (  0.000%)
 classical contributions        ...        0 min,  0.000 sec (  0.000%)
 integral evaluation            ...        0 min,  0.001 sec ( 12.499%)
 iterations                     ...        0 min,  0.006 sec ( 75.001%)
 molecular gradient             ...        0 min,  0.001 sec ( 12.499%)
 printout                       ...        0 min,  0.000 sec (  0.000%)

         :::::::::::::::::::::::::::::::::::::::::::::::::::::
         ::                     SUMMARY                     ::
         :::::::::::::::::::::::::::::::::::::::::::::::::::::
         :: total energy             -37.073716643339 Eh    ::
         :: gradient norm              0.106336454392 Eh/a0 ::
         :: HOMO-LUMO gap              0.307431363385 eV    ::
         ::.................................................::
         :: HOMO orbital eigv.        -9.357731831186 eV    ::
         :: LUMO orbital eigv.        -9.050300467801 eV    ::
         ::.................................................::
         :: SCC energy               -37.604299256646 Eh    ::
         :: -> isotropic ES            0.021654219942 Eh    ::
         :: -> anisotropic ES          0.000720891584 Eh    ::
         :: -> anisotropic XC          0.051133810949 Eh    ::
         :: -> dispersion             -0.019999897765 Eh    ::
         :: repulsion energy           0.530582613307 Eh    ::
         :: add. restraining           0.000000000000 Eh    ::
         :: total charge              -0.000000000000 e     ::
         ::.................................................::
         :: atomisation energy         7.574354206438 Eh    ::
         :::::::::::::::::::::::::::::::::::::::::::::::::::::

           -------------------------------------------------
          |                Property Printout                |
           -------------------------------------------------

    * Orbital Energies and Occupations

         #    Occupation            Energy/Eh            Energy/eV
      -------------------------------------------------------------
         1        2.0000           -0.6706790             -18.2501
       ...           ...                  ...                  ...
        22        2.0000           -0.5005366             -13.6203
        23        2.0000           -0.4993622             -13.5883
        24        2.0000           -0.4916496             -13.3785
        25        2.0000           -0.4766534             -12.9704
        26        2.0000           -0.4569986             -12.4356
        27        2.0000           -0.4541221             -12.3573
        28        2.0000           -0.4491480             -12.2219
        29        2.0000           -0.4296240             -11.6907
        30        2.0000           -0.4294367             -11.6856
        31        2.0000           -0.4257591             -11.5855
        32        2.0000           -0.3773993             -10.2696
        33        2.0000           -0.3772659             -10.2659
        34        1.9948           -0.3438903              -9.3577 (HOMO)
        35        0.0052           -0.3325924              -9.0503 (LUMO)
        36                         -0.2581876              -7.0256
        37                         -0.2526668              -6.8754
        38                         -0.2526177              -6.8741
        39                         -0.2310078              -6.2860
        40                         -0.1288779              -3.5069
        41                         -0.1185711              -3.2265
        42                         -0.0162405              -0.4419
        43                          0.0753165               2.0495
        44                          0.0791519               2.1538
        45                          0.1163930               3.1672
       ...                                ...                  ...
        64                          0.5723690              15.5750
      -------------------------------------------------------------
                  HL-Gap            0.0112979 Eh            0.3074 eV
             Fermi-level           -0.3382414 Eh           -9.2040 eV

     #   Z          covCN         q      C6AA      α(0)
     1   6 C        2.909    -0.035    28.867     8.810
     2   6 C        2.852     0.056    26.747     8.476
     3   7 N        1.834    -0.212    26.455     7.622
     4   6 C        2.852     0.054    26.779     8.481
     5   6 C        2.908    -0.037    28.932     8.820
     6   6 C        2.904     0.090    26.005     8.362
     7   7 N        1.904    -0.132    24.645     7.360
     8   7 N        1.904    -0.132    24.645     7.360
     9   6 C        2.904     0.090    26.005     8.362
    10   6 C        2.909    -0.035    28.867     8.810
    11   6 C        2.852     0.056    26.747     8.476
    12   7 N        1.834    -0.212    26.455     7.622
    13   6 C        2.852     0.054    26.779     8.481
    14   6 C        2.908    -0.037    28.932     8.820
    15   1 H        0.925     0.054     2.270     2.356
    16   1 H        0.925     0.054     2.267     2.355
    17   1 H        0.925     0.052     2.291     2.367
    18   1 H        0.925     0.057     2.235     2.338
    19   1 H        0.925     0.054     2.270     2.356
    20   1 H        0.925     0.054     2.267     2.355
    21   1 H        0.925     0.052     2.291     2.367
    22   1 H        0.925     0.057     2.235     2.338

 Mol. C6AA /au·bohr⁶  :       7153.667112
 Mol. C8AA /au·bohr⁸  :     174943.031930
 Mol. α(0) /au        :        134.695808


Wiberg/Mayer (AO) data.
largest (>0.10) Wiberg bond orders for each atom

 ---------------------------------------------------------------------------
     #   Z sym  total        # sym  WBO       # sym  WBO       # sym  WBO
 ---------------------------------------------------------------------------
     1   6 C    3.978 --     2 C    1.441     6 C    1.366    15 H    0.967
                             4 C    0.106
     2   6 C    3.978 --     1 C    1.441     3 N    1.428    16 H    0.964
                             5 C    0.110
     3   7 N    3.043 --     2 C    1.428     4 C    1.423
     4   6 C    3.978 --     5 C    1.447     3 N    1.423    17 H    0.964
                             1 C    0.106
     5   6 C    3.983 --     4 C    1.447     6 C    1.355    18 H    0.966
                             2 C    0.110
     6   6 C    3.975 --     1 C    1.366     5 C    1.355     7 N    1.095
     7   7 N    3.026 --     8 N    1.734     6 C    1.095
     8   7 N    3.026 --     7 N    1.734     9 C    1.095
     9   6 C    3.975 --    10 C    1.366    14 C    1.355     8 N    1.095
    10   6 C    3.978 --    11 C    1.441     9 C    1.366    19 H    0.967
                            13 C    0.106
    11   6 C    3.978 --    10 C    1.441    12 N    1.428    20 H    0.964
                            14 C    0.110
    12   7 N    3.043 --    11 C    1.428    13 C    1.423
    13   6 C    3.978 --    14 C    1.447    12 N    1.423    21 H    0.964
                            10 C    0.106
    14   6 C    3.983 --    13 C    1.447     9 C    1.355    22 H    0.966
                            11 C    0.110
    15   1 H    0.997 --     1 C    0.967
    16   1 H    0.997 --     2 C    0.964
    17   1 H    0.997 --     4 C    0.964
    18   1 H    0.997 --     5 C    0.966
    19   1 H    0.997 --    10 C    0.967
    20   1 H    0.997 --    11 C    0.964
    21   1 H    0.997 --    13 C    0.964
    22   1 H    0.997 --    14 C    0.966
 ---------------------------------------------------------------------------

Topologies differ in total number of bonds
Writing topology from bond orders to xtbtopo.mol

molecular dipole:
                 x           y           z       tot (Debye)
 q only:       -0.000      -0.000      -0.000
   full:       -0.000      -0.000      -0.000       0.000
molecular quadrupole (traceless):
                xx          xy          yy          xz          yz          zz
 q only:       -5.955      -1.296       5.364       1.905      -4.992       0.591
  q+dip:      -16.052      -0.768      12.514       4.396      -9.982       3.538
   full:      -18.454       0.402      12.045       6.039      -5.520       6.409


           -------------------------------------------------
          | TOTAL ENERGY              -37.073716643339 Eh   |
          | GRADIENT NORM               0.106336454392 Eh/α |
          | HOMO-LUMO GAP               0.307431363385 eV   |
           -------------------------------------------------
########################################################################
[WARNING] Runtime exception occurred
-2- restart_readRestart: Dimension missmatch in restart file.
-1- restart_readRestart: Number of electron missmatch in restart file.
########################################################################

------------------------------------------------------------------------
 unit  open   action     filename
  129 false : read       dft_tmp\mol_242.xyz
  129 false : read       dft_tmp\mol_242.xyz
  129 false : read       dft_tmp\mol_242.xyz
  129 false : read       C:\Users\nkapa\Downloads\xtb-6.7.1pre-windows-x86_64\xtb-6.7.1\share\xtb\param_gfn2-xtb.txt
  129 false : read       xtbrestart
  129 false : replaced   charges
  129 false : replaced   wbo
  129 false : replaced   xtbtopo.mol
  129 false : replaced   xtbrestart

------------------------------------------------------------------------
 * finished run on 2025/06/25 at 12:06:42.541     
------------------------------------------------------------------------
 total:
 * wall-time:     0 d,  0 h,  0 min,  0.038 sec
 *  cpu-time:     0 d,  0 h,  0 min,  0.141 sec
 * ratio c/w:     3.701 speedup
 SCF:
 * wall-time:     0 d,  0 h,  0 min,  0.008 sec
 *  cpu-time:     0 d,  0 h,  0 min,  0.125 sec
 * ratio c/w:    15.625 speedup

normal termination of xtb
