20

C 3.261620 -0.503218 -0.343602
S 2.370015 0.873286 -1.139122
C 0.865664 0.749084 -0.107569
C -0.134434 -0.234092 -0.732748
C -1.421426 -0.412889 0.098597
C -2.213945 0.865587 0.154294
O -2.053914 1.679076 1.104476
O -3.097567 1.171340 -0.876030
N -1.111670 -0.890824 1.448468
H 2.685532 -1.446164 -0.436456
H 3.438088 -0.274738 0.727985
H 4.242097 -0.634531 -0.845325
H 1.126834 0.445015 0.928174
H 0.411698 1.760714 -0.061954
H -0.404682 0.120062 -1.752034
H 0.349583 -1.227033 -0.849244
H -2.049864 -1.177241 -0.412769
H -3.628034 2.034283 -0.866544
H -2.013091 -1.085660 1.942907
H -0.622502 -1.812059 1.367589
