      -----------------------------------------------------------      
     |                   =====================                   |     
     |                           x T B                           |     
     |                   =====================                   |     
     |                         S. Grimme                         |     
     |          Mulliken Center for Theoretical Chemistry        |     
     |                    University of Bonn                     |     
      -----------------------------------------------------------      

   * xtb version 6.7.1pre (5071a88) compiled by 'Marcel@Raven' on 2024-07-23

   xtb is free software: you can redistribute it and/or modify it under
   the terms of the GNU Lesser General Public License as published by
   the Free Software Foundation, either version 3 of the License, or
   (at your option) any later version.
   
   xtb is distributed in the hope that it will be useful,
   but WITHOUT ANY WARRANTY; without even the implied warranty of
   MERCHANTABILITY or FITNESS FOR A PARTICULAR PURPOSE.  See the
   GNU Lesser General Public License for more details.
   
   Cite this work as:
   * C. Bannwarth, E. Caldeweyher, S. Ehlert, A. Hansen, P. Pracht,
     J. Seibert, S. Spicher, S. Grimme, WIREs Comput. Mol. Sci., 2020, 11,
     e01493. DOI: 10.1002/wcms.1493
   
   for GFN2-xTB:
   * C. Bannwarth, S. Ehlert and S. Grimme., J. Chem. Theory Comput., 2019,
     15, 1652-1671. DOI: 10.1021/acs.jctc.8b01176
   for GFN1-xTB:
   * S. Grimme, C. Bannwarth, P. Shushkov, J. Chem. Theory Comput., 2017,
     13, 1989-2009. DOI: 10.1021/acs.jctc.7b00118
   for GFN0-xTB:
   * P. Pracht, E. Caldeweyher, S. Ehlert, S. Grimme, ChemRxiv, 2019, preprint.
     DOI: 10.26434/chemrxiv.8326202.v1
   for GFN-FF:
   * S. Spicher and S. Grimme, Angew. Chem. Int. Ed., 2020, 59, 15665-15673.
     DOI: 10.1002/anie.202004239
   
   for ALPB and GBSA implicit solvation:
   * S. Ehlert, M. Stahn, S. Spicher, S. Grimme, J. Chem. Theory Comput.,
     2021, 17, 4250-4261. DOI: 10.1021/acs.jctc.1c00471
   
   for ddCOSMO and CPCM-X implicit solvation:
   * M. Stahn, S. Ehlert, S. Grimme, J. Phys. Chem. A,
     2023, XX, XXXX-XXXX. DOI: 10.1021/acs.jpca.3c04382
   
   for DFT-D4:
   * E. Caldeweyher, C. Bannwarth and S. Grimme, J. Chem. Phys., 2017,
     147, 034112. DOI: 10.1063/1.4993215
   * E. Caldeweyher, S. Ehlert, A. Hansen, H. Neugebauer, S. Spicher,
     C. Bannwarth and S. Grimme, J. Chem. Phys., 2019, 150, 154122.
     DOI: 10.1063/1.5090222
   * E. Caldeweyher, J.-M. Mewes, S. Ehlert and S. Grimme, Phys. Chem. Chem. Phys.
     2020, 22, 8499-8512. DOI: 10.1039/D0CP00502A
   
   for sTDA-xTB:
   * S. Grimme and C. Bannwarth, J. Chem. Phys., 2016, 145, 054103.
     DOI: 10.1063/1.4959605
   
   in the mass-spec context:
   * V. Asgeirsson, C. Bauer and S. Grimme, Chem. Sci., 2017, 8, 4879.
     DOI: 10.1039/c7sc00601b
   * J. Koopman and S. Grimme, ACS Omega 2019, 4, 12, 15120-15133.
     DOI: 10.1021/acsomega.9b02011
   
   for metadynamics refer to:
   * S. Grimme, J. Chem. Theory Comput., 2019, 155, 2847-2862
     DOI: 10.1021/acs.jctc.9b00143
   
   for SPH calculations refer to:
   * S. Spicher and S. Grimme, J. Chem. Theory Comput., 2021, 17, 1701-1714
     DOI: 10.1021/acs.jctc.0c01306
   
   for ONIOM refer to:
   * C. Plett, A. Katbashev, S. Ehlert, S. Grimme, M. Bursch,
     Phys. Chem. Chem. Phys., 2023, 25, 17860-17868. DOI: 10.1039/D3CP02178E
   
   for DIPRO refer to:
   * J. Kohn, N. Gildemeister, S. Grimme, D. Fazzi, A. Hansen,
     J. Chem. Phys., 2023, just accepted.
   
   for PTB refer to:
   * S. Grimme, M. Mueller, A. Hansen, J. Chem. Phys., 2023, 158, 124111.
     DOI: 10.1063/5.0137838
   
   with help from (in alphabetical order)
   P. Atkinson, C. Bannwarth, F. Bohle, G. Brandenburg, E. Caldeweyher
   M. Checinski, S. Dohm, S. Ehlert, S. Ehrlich, I. Gerasimov, C. Hölzer
   A. Katbashev, J. Kohn, J. Koopman, C. Lavigne, S. Lehtola, F. März, M. Müller,
   F. Musil, H. Neugebauer, J. Pisarek, C. Plett, P. Pracht, F. Pultar,
   J. Seibert, P. Shushkov, S. Spicher, M. Stahn, M. Steiner, T. Strunk,
   J. Stückrath, T. Rose, and J. Unsleber
   
 * started run on 2025/06/25 at 12:06:12.042     
$$$$$$$$$$$$$$$$$$$$$$$$$$$$$$$$$$$$$$$$$$$$$$$$$$$$$$$$$$$$$$$$$$$$$$$$
 CONSTRAINTS & SCANS: DEBUG SECTION
$$$$$$$$$$$$$$$$$$$$$$$$$$$$$$$$$$$$$$$$$$$$$$$$$$$$$$$$$$$$$$$$$$$$$$$$
   ID    Z sym.   atoms
    1    6 C      1-6
    2    8 O      7-12
    3   11 Na     13
    4    1 H      14-20
$$$$$$$$$$$$$$$$$$$$$$$$$$$$$$$$$$$$$$$$$$$$$$$$$$$$$$$$$$$$$$$$$$$$$$$$

           -------------------------------------------------
          |                Calculation Setup                |
           -------------------------------------------------

          program call               : C:\Users\nkapa\Downloads\xtb-6.7.1pre-windows-x86_64\xtb-6.7.1\bin\xtb.EXE dft_tmp\mol_37.xyz --gfn2 --parallel 8 --verbose
          coordinate file            : dft_tmp\mol_37.xyz
          xtbhome directory          : C:\Users\nkapa\AppData\Roaming\SPB_Data
          path for xtb               : C:\Users\nkapa\Downloads\xtb-6.7.1pre-windows-x86_64\xtb-6.7.1\share\xtb
          xcontrol input file        : dft_tmp\mol_37.xyz
          omp threads                :                     8


           -------------------------------------------------
          |                 G F N 2 - x T B                 |
           -------------------------------------------------

        Reference                      10.1021/acs.jctc.8b01176
      * Hamiltonian:
        H0-scaling (s, p, d)           1.850000    2.230000    2.230000
        zeta-weighting                 0.500000
      * Dispersion:
        s8                             2.700000
        a1                             0.520000
        a2                             5.000000
        s9                             5.000000
      * Repulsion:
        kExp                           1.500000    1.000000
        rExp                           1.000000
      * Coulomb:
        alpha                          2.000000
        third order                    shell-resolved
        anisotropic                    true
        a3                             3.000000
        a5                             4.000000
        cn-shift                       1.200000
        cn-exp                         4.000000
        max-rad                        5.000000


          ...................................................
          :                      SETUP                      :
          :.................................................:
          :  # basis functions                  59          :
          :  # atomic orbitals                  59          :
          :  # shells                           33          :
          :  # electrons                        68          :
          :  max. iterations                   250          :
          :  Hamiltonian                  GFN2-xTB          :
          :  restarted?                      false          :
          :  GBSA solvation                  false          :
          :  PC potential                    false          :
          :  electronic temp.          300.0000000     K    :
          :  accuracy                    1.0000000          :
          :  -> integral cutoff          0.2500000E+02      :
          :  -> integral neglect         0.1000000E-07      :
          :  -> SCF convergence          0.1000000E-05 Eh   :
          :  -> wf. convergence          0.1000000E-03 e    :
          :  Broyden damping             0.4000000          :
          :  net charge                          0          :
          :  unpaired electrons                  0          :
          ...................................................

 iter      E             dE          RMSdq      gap      omega  full diag
   1    -41.0987091 -0.410987E+02  0.883E+00    3.51       0.0  T
   2    -41.3047640 -0.206055E+00  0.336E+00    2.32       1.0  T
   3    -41.3215850 -0.168210E-01  0.253E+00    2.73       1.0  T
   4    -41.3312145 -0.962950E-02  0.713E-01    2.53       1.0  T
   5    -41.3377386 -0.652408E-02  0.328E-01    2.51       1.0  T
   6    -41.3381225 -0.383880E-03  0.184E-01    2.57       1.0  T
   7    -41.3384427 -0.320208E-03  0.648E-02    2.54       1.0  T
   8    -41.3384573 -0.146117E-04  0.199E-02    2.54       1.1  T
   9    -41.3384576 -0.303712E-06  0.103E-02    2.55       2.2  T
  10    -41.3384577 -0.735145E-07  0.546E-03    2.54       4.1  T
  11    -41.3384577 -0.450856E-07  0.598E-04    2.54      37.4  T
  12    -41.3384577 -0.366244E-08  0.287E-04    2.54      78.0  T

   *** convergence criteria satisfied after 12 iterations ***

         #    Occupation            Energy/Eh            Energy/eV
      -------------------------------------------------------------
         1        2.0000           -0.7814674             -21.2648
       ...           ...                  ...                  ...
        28        2.0000           -0.4762839             -12.9603
        29        2.0000           -0.4690576             -12.7637
        30        2.0000           -0.4605411             -12.5320
        31        2.0000           -0.4424990             -12.0410
        32        2.0000           -0.4075554             -11.0901
        33        2.0000           -0.3729314             -10.1480
        34        2.0000           -0.3511415              -9.5550 (HOMO)
        35                         -0.2576330              -7.0106 (LUMO)
        36                         -0.1442711              -3.9258
        37                         -0.1399238              -3.8075
        38                         -0.0718384              -1.9548
        39                         -0.0614867              -1.6731
       ...                                ...                  ...
        59                          0.6981449              18.9975
      -------------------------------------------------------------
                  HL-Gap            0.0935085 Eh            2.5445 eV
             Fermi-level           -0.3043873 Eh           -8.2828 eV

 SCC (total)                   0 d,  0 h,  0 min,  0.011 sec
 SCC setup                      ...        0 min,  0.001 sec (  9.090%)
 Dispersion                     ...        0 min,  0.000 sec (  0.000%)
 classical contributions        ...        0 min,  0.000 sec (  0.000%)
 integral evaluation            ...        0 min,  0.000 sec (  0.000%)
 iterations                     ...        0 min,  0.008 sec ( 72.729%)
 molecular gradient             ...        0 min,  0.002 sec ( 18.181%)
 printout                       ...        0 min,  0.000 sec (  0.000%)

         :::::::::::::::::::::::::::::::::::::::::::::::::::::
         ::                     SUMMARY                     ::
         :::::::::::::::::::::::::::::::::::::::::::::::::::::
         :: total energy             -34.132856343365 Eh    ::
         :: gradient norm             18.682380748925 Eh/a0 ::
         :: HOMO-LUMO gap              2.544496755604 eV    ::
         ::.................................................::
         :: HOMO orbital eigv.        -9.555047848695 eV    ::
         :: LUMO orbital eigv.        -7.010551093091 eV    ::
         ::.................................................::
         :: SCC energy               -41.338403723024 Eh    ::
         :: -> isotropic ES            0.203989295713 Eh    ::
         :: -> anisotropic ES          0.006692446716 Eh    ::
         :: -> anisotropic XC         -0.007092643106 Eh    ::
         :: -> dispersion             -0.016128628368 Eh    ::
         :: repulsion energy           7.205547379660 Eh    ::
         :: add. restraining           0.000000000000 Eh    ::
         :: total charge              -0.000000000000 e     ::
         ::.................................................::
         :: atomisation energy        -1.120653363595 Eh    ::
         :::::::::::::::::::::::::::::::::::::::::::::::::::::

           -------------------------------------------------
          |                Property Printout                |
           -------------------------------------------------

    * Orbital Energies and Occupations

         #    Occupation            Energy/Eh            Energy/eV
      -------------------------------------------------------------
         1        2.0000           -0.7814674             -21.2648
       ...           ...                  ...                  ...
        22        2.0000           -0.5393448             -14.6763
        23        2.0000           -0.5307658             -14.4429
        24        2.0000           -0.5129345             -13.9577
        25        2.0000           -0.5067613             -13.7897
        26        2.0000           -0.5039646             -13.7136
        27        2.0000           -0.4886349             -13.2964
        28        2.0000           -0.4762839             -12.9603
        29        2.0000           -0.4690576             -12.7637
        30        2.0000           -0.4605411             -12.5320
        31        2.0000           -0.4424990             -12.0410
        32        2.0000           -0.4075554             -11.0901
        33        2.0000           -0.3729314             -10.1480
        34        2.0000           -0.3511415              -9.5550 (HOMO)
        35                         -0.2576330              -7.0106 (LUMO)
        36                         -0.1442711              -3.9258
        37                         -0.1399238              -3.8075
        38                         -0.0718384              -1.9548
        39                         -0.0614867              -1.6731
        40                         -0.0332597              -0.9050
        41                         -0.0292507              -0.7960
        42                         -0.0034909              -0.0950
        43                          0.0042998               0.1170
        44                          0.0130855               0.3561
        45                          0.0426240               1.1599
       ...                                ...                  ...
        59                          0.6981449              18.9975
      -------------------------------------------------------------
                  HL-Gap            0.0935085 Eh            2.5445 eV
             Fermi-level           -0.3043873 Eh           -8.2828 eV

     #   Z          covCN         q      C6AA      α(0)
     1   6 C        4.408     0.050    19.647     6.295
     2   6 C        4.483    -0.054    21.457     6.579
     3   6 C        4.579    -0.220    24.762     7.067
     4   6 C        3.688     0.050    19.920     6.388
     5   6 C        3.589     0.052    20.342     6.537
     6   6 C        3.600     0.292    16.661     5.904
     7   8 O        0.856    -0.395    21.578     6.228
     8   8 O        2.363    -0.283    18.667     5.835
     9   8 O        1.648    -0.382    20.504     6.113
    10   8 O        1.271    -0.568    24.982     6.718
    11   8 O        2.309    -0.419    21.162     6.213
    12   8 O        1.708    -0.415    21.116     6.204
    13  11 Na       7.967     0.968    10.573     5.962
    14   1 H        0.921     0.037     2.493     2.469
    15   1 H        0.974     0.088     1.894     2.151
    16   1 H        1.697     0.090     1.867     2.133
    17   1 H        1.725     0.149     1.387     1.838
    18   1 H        0.796     0.323     0.657     1.274
    19   1 H        0.845     0.331     0.630     1.244
    20   1 H        0.801     0.305     0.708     1.322

 Mol. C6AA /au·bohr⁶  :       4326.837455
 Mol. C8AA /au·bohr⁸  :     111225.308144
 Mol. α(0) /au        :         94.473907


Wiberg/Mayer (AO) data.
largest (>0.10) Wiberg bond orders for each atom

 ---------------------------------------------------------------------------
     #   Z sym  total        # sym  WBO       # sym  WBO       # sym  WBO
 ---------------------------------------------------------------------------
     1   6 C    3.954 --    12 O    1.021     2 C    0.981    14 H    0.969
                            15 H    0.968
     2   6 C    3.947 --    11 O    1.007     1 C    0.981     3 C    0.977
                            16 H    0.958
     3   6 C    3.914 --     8 O    0.983     2 C    0.977     4 C    0.952
                            17 H    0.936
     4   6 C    3.960 --     5 C    1.490    10 O    1.342     3 C    0.952
     5   6 C    3.938 --     4 C    1.490     6 C    1.139     9 O    1.057
                            10 O    0.137
     6   6 C    3.924 --     7 O    1.662     5 C    1.139     8 O    0.980
     7   8 O    2.030 --     6 C    1.662     8 O    0.111
     8   8 O    2.244 --     3 C    0.983     6 C    0.980     7 O    0.111
     9   8 O    2.084 --     5 C    1.057    18 H    0.875
    10   8 O    1.792 --     4 C    1.342     5 C    0.137
    11   8 O    2.031 --     2 C    1.007    19 H    0.879
    12   8 O    2.002 --     1 C    1.021    20 H    0.894
    13  11 Na   0.060
    14   1 H    0.998 --     1 C    0.969
    15   1 H    0.992 --     1 C    0.968
    16   1 H    0.992 --     2 C    0.958
    17   1 H    0.978 --     3 C    0.936
    18   1 H    0.896 --     9 O    0.875
    19   1 H    0.890 --    11 O    0.879
    20   1 H    0.907 --    12 O    0.894
 ---------------------------------------------------------------------------

Topologies differ in total number of bonds
Writing topology from bond orders to xtbtopo.mol

molecular dipole:
                 x           y           z       tot (Debye)
 q only:       -3.430       0.243      -1.367
   full:       -4.069       0.672      -1.720      11.357
molecular quadrupole (traceless):
                xx          xy          yy          xz          yz          zz
 q only:        1.293       3.357      -4.838       0.791      11.277       3.545
  q+dip:       -0.175       6.334      -5.662       2.671      12.287       5.837
   full:        0.650       6.296      -6.346       3.381      13.934       5.696


           -------------------------------------------------
          | TOTAL ENERGY              -34.132856343365 Eh   |
          | GRADIENT NORM              18.682380748925 Eh/α |
          | HOMO-LUMO GAP               2.544496755604 eV   |
           -------------------------------------------------
########################################################################
[WARNING] Runtime exception occurred
-2- restart_readRestart: Dimension missmatch in restart file.
-1- restart_readRestart: Number of electron missmatch in restart file.
########################################################################

------------------------------------------------------------------------
 unit  open   action     filename
  129 false : read       dft_tmp\mol_37.xyz
  129 false : read       dft_tmp\mol_37.xyz
  129 false : read       dft_tmp\mol_37.xyz
  129 false : read       C:\Users\nkapa\Downloads\xtb-6.7.1pre-windows-x86_64\xtb-6.7.1\share\xtb\param_gfn2-xtb.txt
  129 false : read       xtbrestart
  129 false : replaced   charges
  129 false : replaced   wbo
  129 false : replaced   xtbtopo.mol
  129 false : replaced   xtbrestart

------------------------------------------------------------------------
 * finished run on 2025/06/25 at 12:06:12.099     
------------------------------------------------------------------------
 total:
 * wall-time:     0 d,  0 h,  0 min,  0.056 sec
 *  cpu-time:     0 d,  0 h,  0 min,  0.219 sec
 * ratio c/w:     3.906 speedup
 SCF:
 * wall-time:     0 d,  0 h,  0 min,  0.011 sec
 *  cpu-time:     0 d,  0 h,  0 min,  0.000 sec
 * ratio c/w:     0.000 speedup

normal termination of xtb
