      -----------------------------------------------------------      
     |                   =====================                   |     
     |                           x T B                           |     
     |                   =====================                   |     
     |                         S. Grimme                         |     
     |          Mulliken Center for Theoretical Chemistry        |     
     |                    University of Bonn                     |     
      -----------------------------------------------------------      

   * xtb version 6.7.1pre (5071a88) compiled by 'Marcel@Raven' on 2024-07-23

   xtb is free software: you can redistribute it and/or modify it under
   the terms of the GNU Lesser General Public License as published by
   the Free Software Foundation, either version 3 of the License, or
   (at your option) any later version.
   
   xtb is distributed in the hope that it will be useful,
   but WITHOUT ANY WARRANTY; without even the implied warranty of
   MERCHANTABILITY or FITNESS FOR A PARTICULAR PURPOSE.  See the
   GNU Lesser General Public License for more details.
   
   Cite this work as:
   * C. Bannwarth, E. Caldeweyher, S. Ehlert, A. Hansen, P. Pracht,
     J. Seibert, S. Spicher, S. Grimme, WIREs Comput. Mol. Sci., 2020, 11,
     e01493. DOI: 10.1002/wcms.1493
   
   for GFN2-xTB:
   * C. Bannwarth, S. Ehlert and S. Grimme., J. Chem. Theory Comput., 2019,
     15, 1652-1671. DOI: 10.1021/acs.jctc.8b01176
   for GFN1-xTB:
   * S. Grimme, C. Bannwarth, P. Shushkov, J. Chem. Theory Comput., 2017,
     13, 1989-2009. DOI: 10.1021/acs.jctc.7b00118
   for GFN0-xTB:
   * P. Pracht, E. Caldeweyher, S. Ehlert, S. Grimme, ChemRxiv, 2019, preprint.
     DOI: 10.26434/chemrxiv.8326202.v1
   for GFN-FF:
   * S. Spicher and S. Grimme, Angew. Chem. Int. Ed., 2020, 59, 15665-15673.
     DOI: 10.1002/anie.202004239
   
   for ALPB and GBSA implicit solvation:
   * S. Ehlert, M. Stahn, S. Spicher, S. Grimme, J. Chem. Theory Comput.,
     2021, 17, 4250-4261. DOI: 10.1021/acs.jctc.1c00471
   
   for ddCOSMO and CPCM-X implicit solvation:
   * M. Stahn, S. Ehlert, S. Grimme, J. Phys. Chem. A,
     2023, XX, XXXX-XXXX. DOI: 10.1021/acs.jpca.3c04382
   
   for DFT-D4:
   * E. Caldeweyher, C. Bannwarth and S. Grimme, J. Chem. Phys., 2017,
     147, 034112. DOI: 10.1063/1.4993215
   * E. Caldeweyher, S. Ehlert, A. Hansen, H. Neugebauer, S. Spicher,
     C. Bannwarth and S. Grimme, J. Chem. Phys., 2019, 150, 154122.
     DOI: 10.1063/1.5090222
   * E. Caldeweyher, J.-M. Mewes, S. Ehlert and S. Grimme, Phys. Chem. Chem. Phys.
     2020, 22, 8499-8512. DOI: 10.1039/D0CP00502A
   
   for sTDA-xTB:
   * S. Grimme and C. Bannwarth, J. Chem. Phys., 2016, 145, 054103.
     DOI: 10.1063/1.4959605
   
   in the mass-spec context:
   * V. Asgeirsson, C. Bauer and S. Grimme, Chem. Sci., 2017, 8, 4879.
     DOI: 10.1039/c7sc00601b
   * J. Koopman and S. Grimme, ACS Omega 2019, 4, 12, 15120-15133.
     DOI: 10.1021/acsomega.9b02011
   
   for metadynamics refer to:
   * S. Grimme, J. Chem. Theory Comput., 2019, 155, 2847-2862
     DOI: 10.1021/acs.jctc.9b00143
   
   for SPH calculations refer to:
   * S. Spicher and S. Grimme, J. Chem. Theory Comput., 2021, 17, 1701-1714
     DOI: 10.1021/acs.jctc.0c01306
   
   for ONIOM refer to:
   * C. Plett, A. Katbashev, S. Ehlert, S. Grimme, M. Bursch,
     Phys. Chem. Chem. Phys., 2023, 25, 17860-17868. DOI: 10.1039/D3CP02178E
   
   for DIPRO refer to:
   * J. Kohn, N. Gildemeister, S. Grimme, D. Fazzi, A. Hansen,
     J. Chem. Phys., 2023, just accepted.
   
   for PTB refer to:
   * S. Grimme, M. Mueller, A. Hansen, J. Chem. Phys., 2023, 158, 124111.
     DOI: 10.1063/5.0137838
   
   with help from (in alphabetical order)
   P. Atkinson, C. Bannwarth, F. Bohle, G. Brandenburg, E. Caldeweyher
   M. Checinski, S. Dohm, S. Ehlert, S. Ehrlich, I. Gerasimov, C. Hölzer
   A. Katbashev, J. Kohn, J. Koopman, C. Lavigne, S. Lehtola, F. März, M. Müller,
   F. Musil, H. Neugebauer, J. Pisarek, C. Plett, P. Pracht, F. Pultar,
   J. Seibert, P. Shushkov, S. Spicher, M. Stahn, M. Steiner, T. Strunk,
   J. Stückrath, T. Rose, and J. Unsleber
   
 * started run on 2025/06/25 at 12:06:19.367     
$$$$$$$$$$$$$$$$$$$$$$$$$$$$$$$$$$$$$$$$$$$$$$$$$$$$$$$$$$$$$$$$$$$$$$$$
 CONSTRAINTS & SCANS: DEBUG SECTION
$$$$$$$$$$$$$$$$$$$$$$$$$$$$$$$$$$$$$$$$$$$$$$$$$$$$$$$$$$$$$$$$$$$$$$$$
   ID    Z sym.   atoms
    1    6 C      1-4, 8, 10
    2    8 O      5, 6
    3    7 N      7, 9, 11, 12
    4    1 H      13-26
$$$$$$$$$$$$$$$$$$$$$$$$$$$$$$$$$$$$$$$$$$$$$$$$$$$$$$$$$$$$$$$$$$$$$$$$

           -------------------------------------------------
          |                Calculation Setup                |
           -------------------------------------------------

          program call               : C:\Users\nkapa\Downloads\xtb-6.7.1pre-windows-x86_64\xtb-6.7.1\bin\xtb.EXE dft_tmp\mol_84.xyz --gfn2 --parallel 8 --verbose
          coordinate file            : dft_tmp\mol_84.xyz
          xtbhome directory          : C:\Users\nkapa\AppData\Roaming\SPB_Data
          path for xtb               : C:\Users\nkapa\Downloads\xtb-6.7.1pre-windows-x86_64\xtb-6.7.1\share\xtb
          xcontrol input file        : dft_tmp\mol_84.xyz
          omp threads                :                     8


           -------------------------------------------------
          |                 G F N 2 - x T B                 |
           -------------------------------------------------

        Reference                      10.1021/acs.jctc.8b01176
      * Hamiltonian:
        H0-scaling (s, p, d)           1.850000    2.230000    2.230000
        zeta-weighting                 0.500000
      * Dispersion:
        s8                             2.700000
        a1                             0.520000
        a2                             5.000000
        s9                             5.000000
      * Repulsion:
        kExp                           1.500000    1.000000
        rExp                           1.000000
      * Coulomb:
        alpha                          2.000000
        third order                    shell-resolved
        anisotropic                    true
        a3                             3.000000
        a5                             4.000000
        cn-shift                       1.200000
        cn-exp                         4.000000
        max-rad                        5.000000

q/qsh data taken from xtbrestart
CAMM data taken from xtbrestart

          ...................................................
          :                      SETUP                      :
          :.................................................:
          :  # basis functions                  62          :
          :  # atomic orbitals                  62          :
          :  # shells                           38          :
          :  # electrons                        70          :
          :  max. iterations                   250          :
          :  Hamiltonian                  GFN2-xTB          :
          :  restarted?                       true          :
          :  GBSA solvation                  false          :
          :  PC potential                    false          :
          :  electronic temp.          300.0000000     K    :
          :  accuracy                    1.0000000          :
          :  -> integral cutoff          0.2500000E+02      :
          :  -> integral neglect         0.1000000E-07      :
          :  -> SCF convergence          0.1000000E-05 Eh   :
          :  -> wf. convergence          0.1000000E-03 e    :
          :  Broyden damping             0.4000000          :
          :  net charge                          0          :
          :  unpaired electrons                  0          :
          ...................................................

 iter      E             dE          RMSdq      gap      omega  full diag
   1    -39.5786495 -0.395786E+02  0.657E+00    2.28       0.0  T
   2    -40.0652842 -0.486635E+00  0.284E+00    0.79       1.0  T
   3    -40.1112200 -0.459357E-01  0.168E+00    2.19       1.0  T
   4    -40.1241906 -0.129707E-01  0.664E-01    2.50       1.0  T
   5    -40.1269448 -0.275413E-02  0.183E-01    2.40       1.0  T
   6    -40.1271815 -0.236779E-03  0.768E-02    2.42       1.0  T
   7    -40.1272178 -0.362236E-04  0.368E-02    2.37       1.0  T
   8    -40.1272315 -0.137205E-04  0.115E-02    2.37       1.7  T
   9    -40.1272318 -0.274845E-06  0.498E-03    2.37       3.9  T
  10    -40.1272319 -0.113142E-06  0.175E-03    2.37      11.2  T
  11    -40.1272319 -0.120045E-07  0.692E-04    2.37      28.3  T
  12    -40.1272319 -0.158325E-08  0.194E-04    2.37     101.1  T

   *** convergence criteria satisfied after 12 iterations ***

         #    Occupation            Energy/Eh            Energy/eV
      -------------------------------------------------------------
         1        2.0000           -0.7252209             -19.7343
       ...           ...                  ...                  ...
        29        2.0000           -0.4306855             -11.7195
        30        2.0000           -0.4203353             -11.4379
        31        2.0000           -0.4129618             -11.2373
        32        2.0000           -0.3874814             -10.5439
        33        2.0000           -0.3725203             -10.1368
        34        2.0000           -0.3458499              -9.4111
        35        2.0000           -0.3409023              -9.2764 (HOMO)
        36                         -0.2537230              -6.9042 (LUMO)
        37                         -0.1708754              -4.6498
        38                         -0.0691256              -1.8810
        39                         -0.0383362              -1.0432
        40                         -0.0065300              -0.1777
       ...                                ...                  ...
        62                          0.5321454              14.4804
      -------------------------------------------------------------
                  HL-Gap            0.0871793 Eh            2.3723 eV
             Fermi-level           -0.2973126 Eh           -8.0903 eV

 SCC (total)                   0 d,  0 h,  0 min,  0.011 sec
 SCC setup                      ...        0 min,  0.001 sec (  9.092%)
 Dispersion                     ...        0 min,  0.000 sec (  0.000%)
 classical contributions        ...        0 min,  0.000 sec (  0.000%)
 integral evaluation            ...        0 min,  0.000 sec (  0.000%)
 iterations                     ...        0 min,  0.009 sec ( 81.815%)
 molecular gradient             ...        0 min,  0.001 sec (  9.092%)
 printout                       ...        0 min,  0.000 sec (  0.000%)

         :::::::::::::::::::::::::::::::::::::::::::::::::::::
         ::                     SUMMARY                     ::
         :::::::::::::::::::::::::::::::::::::::::::::::::::::
         :: total energy             -39.766752483910 Eh    ::
         :: gradient norm              0.154370430202 Eh/a0 ::
         :: HOMO-LUMO gap              2.372270420302 eV    ::
         ::.................................................::
         :: HOMO orbital eigv.        -9.276423921078 eV    ::
         :: LUMO orbital eigv.        -6.904153500776 eV    ::
         ::.................................................::
         :: SCC energy               -40.127225998858 Eh    ::
         :: -> isotropic ES            0.094700331251 Eh    ::
         :: -> anisotropic ES          0.010589827832 Eh    ::
         :: -> anisotropic XC          0.021585138643 Eh    ::
         :: -> dispersion             -0.018675279148 Eh    ::
         :: repulsion energy           0.360473514948 Eh    ::
         :: add. restraining           0.000000000000 Eh    ::
         :: total charge               0.000000000000 e     ::
         ::.................................................::
         :: atomisation energy         6.866425714252 Eh    ::
         :::::::::::::::::::::::::::::::::::::::::::::::::::::

           -------------------------------------------------
          |                Property Printout                |
           -------------------------------------------------

    * Orbital Energies and Occupations

         #    Occupation            Energy/Eh            Energy/eV
      -------------------------------------------------------------
         1        2.0000           -0.7252209             -19.7343
       ...           ...                  ...                  ...
        23        2.0000           -0.4793729             -13.0444
        24        2.0000           -0.4674727             -12.7206
        25        2.0000           -0.4629483             -12.5975
        26        2.0000           -0.4597686             -12.5109
        27        2.0000           -0.4564686             -12.4211
        28        2.0000           -0.4333842             -11.7930
        29        2.0000           -0.4306855             -11.7195
        30        2.0000           -0.4203353             -11.4379
        31        2.0000           -0.4129618             -11.2373
        32        2.0000           -0.3874814             -10.5439
        33        2.0000           -0.3725203             -10.1368
        34        2.0000           -0.3458499              -9.4111
        35        2.0000           -0.3409023              -9.2764 (HOMO)
        36                         -0.2537230              -6.9042 (LUMO)
        37                         -0.1708754              -4.6498
        38                         -0.0691256              -1.8810
        39                         -0.0383362              -1.0432
        40                         -0.0065300              -0.1777
        41                          0.0270274               0.7355
        42                          0.0695251               1.8919
        43                          0.0792517               2.1565
        44                          0.0930301               2.5315
        45                          0.1140024               3.1022
        46                          0.1164519               3.1688
       ...                                ...                  ...
        62                          0.5321454              14.4804
      -------------------------------------------------------------
                  HL-Gap            0.0871793 Eh            2.3723 eV
             Fermi-level           -0.2973126 Eh           -8.0903 eV

     #   Z          covCN         q      C6AA      α(0)
     1   6 C        3.795    -0.055    21.576     6.614
     2   6 C        3.795    -0.059    21.642     6.624
     3   6 C        3.779     0.040    19.924     6.359
     4   6 C        2.687     0.335    21.315     7.556
     5   8 O        0.856    -0.423    22.155     6.311
     6   8 O        1.647    -0.389    20.639     6.133
     7   7 N        2.625    -0.320    28.241     7.893
     8   6 C        3.734     0.036    20.057     6.392
     9   7 N        1.827    -0.342    29.729     8.079
    10   6 C        2.735     0.214    23.467     7.931
    11   7 N        2.629    -0.276    27.144     7.738
    12   7 N        2.627    -0.298    27.685     7.814
    13   1 H        0.921     0.055     2.256     2.349
    14   1 H        0.922     0.030     2.581     2.513
    15   1 H        0.921     0.075     2.027     2.227
    16   1 H        0.921     0.039     2.460     2.453
    17   1 H        0.921     0.056     2.242     2.342
    18   1 H        0.796     0.324     0.655     1.272
    19   1 H        0.857     0.159     1.341     1.814
    20   1 H        0.857     0.136     1.503     1.921
    21   1 H        0.921     0.006     2.953     2.688
    22   1 H        0.921     0.011     2.881     2.655
    23   1 H        0.858     0.180     1.215     1.727
    24   1 H        0.858     0.156     1.364     1.830
    25   1 H        0.858     0.166     1.300     1.786
    26   1 H        0.858     0.145     1.436     1.877

 Mol. C6AA /au·bohr⁶  :       5904.194001
 Mol. C8AA /au·bohr⁸  :     126020.763424
 Mol. α(0) /au        :        114.895871


Wiberg/Mayer (AO) data.
largest (>0.10) Wiberg bond orders for each atom

 ---------------------------------------------------------------------------
     #   Z sym  total        # sym  WBO       # sym  WBO       # sym  WBO
 ---------------------------------------------------------------------------
     1   6 C    3.995 --     2 C    1.009     8 C    1.002    14 H    0.975
                            13 H    0.973
     2   6 C    3.987 --     1 C    1.009    16 H    0.974    15 H    0.968
                             3 C    0.958
     3   6 C    3.985 --     7 N    1.022     4 C    0.972     2 C    0.958
                            17 H    0.952
     4   6 C    3.899 --     5 O    1.744     6 O    1.114     3 C    0.972
     5   8 O    2.010 --     4 C    1.744     6 O    0.168
     6   8 O    2.181 --     4 C    1.114    18 H    0.866     5 O    0.168
     7   7 N    3.021 --     3 C    1.022    20 H    0.967    19 H    0.955
     8   6 C    3.993 --     9 N    1.017     1 C    1.002    22 H    0.963
                            21 H    0.963
     9   7 N    3.001 --    10 C    1.656     8 C    1.017    12 N    0.149
                            11 N    0.118
    10   6 C    3.955 --     9 N    1.656    11 N    1.143    12 N    1.112
    11   7 N    3.247 --    10 C    1.143    24 H    0.958    23 H    0.951
                             9 N    0.118
    12   7 N    3.241 --    10 C    1.112    26 H    0.959    25 H    0.953
                             9 N    0.149
    13   1 H    0.997 --     1 C    0.973
    14   1 H    0.999 --     1 C    0.975
    15   1 H    0.994 --     2 C    0.968
    16   1 H    0.998 --     2 C    0.974
    17   1 H    0.997 --     3 C    0.952
    18   1 H    0.895 --     6 O    0.866
    19   1 H    0.975 --     7 N    0.955
    20   1 H    0.981 --     7 N    0.967
    21   1 H    1.000 --     8 C    0.963
    22   1 H    1.000 --     8 C    0.963
    23   1 H    0.968 --    11 N    0.951
    24   1 H    0.975 --    11 N    0.958
    25   1 H    0.973 --    12 N    0.953
    26   1 H    0.979 --    12 N    0.959
 ---------------------------------------------------------------------------

Topologies differ in total number of bonds
Writing topology from bond orders to xtbtopo.mol

molecular dipole:
                 x           y           z       tot (Debye)
 q only:        1.307      -0.225       0.647
   full:        1.325       0.510       0.704       4.027
molecular quadrupole (traceless):
                xx          xy          yy          xz          yz          zz
 q only:        7.584      -1.533       0.506      -6.868       2.630      -8.090
  q+dip:       16.752      -2.935      -2.777      -8.071       2.563     -13.976
   full:       17.185      -2.189      -3.287      -8.224       2.610     -13.898


           -------------------------------------------------
          | TOTAL ENERGY              -39.766752483910 Eh   |
          | GRADIENT NORM               0.154370430202 Eh/α |
          | HOMO-LUMO GAP               2.372270420302 eV   |
           -------------------------------------------------

------------------------------------------------------------------------
 unit  open   action     filename
  129 false : read       dft_tmp\mol_84.xyz
  129 false : read       dft_tmp\mol_84.xyz
  129 false : read       dft_tmp\mol_84.xyz
  129 false : read       C:\Users\nkapa\Downloads\xtb-6.7.1pre-windows-x86_64\xtb-6.7.1\share\xtb\param_gfn2-xtb.txt
  129 false : read       xtbrestart
  129 false : replaced   charges
  129 false : replaced   wbo
  129 false : replaced   xtbtopo.mol
  129 false : replaced   xtbrestart

------------------------------------------------------------------------
 * finished run on 2025/06/25 at 12:06:19.440     
------------------------------------------------------------------------
 total:
 * wall-time:     0 d,  0 h,  0 min,  0.072 sec
 *  cpu-time:     0 d,  0 h,  0 min,  0.125 sec
 * ratio c/w:     1.736 speedup
 SCF:
 * wall-time:     0 d,  0 h,  0 min,  0.011 sec
 *  cpu-time:     0 d,  0 h,  0 min,  0.094 sec
 * ratio c/w:     8.523 speedup

normal termination of xtb
