      -----------------------------------------------------------      
     |                   =====================                   |     
     |                           x T B                           |     
     |                   =====================                   |     
     |                         S. Grimme                         |     
     |          Mulliken Center for Theoretical Chemistry        |     
     |                    University of Bonn                     |     
      -----------------------------------------------------------      

   * xtb version 6.7.1pre (5071a88) compiled by 'Marcel@Raven' on 2024-07-23

   xtb is free software: you can redistribute it and/or modify it under
   the terms of the GNU Lesser General Public License as published by
   the Free Software Foundation, either version 3 of the License, or
   (at your option) any later version.
   
   xtb is distributed in the hope that it will be useful,
   but WITHOUT ANY WARRANTY; without even the implied warranty of
   MERCHANTABILITY or FITNESS FOR A PARTICULAR PURPOSE.  See the
   GNU Lesser General Public License for more details.
   
   Cite this work as:
   * C. Bannwarth, E. Caldeweyher, S. Ehlert, A. Hansen, P. Pracht,
     J. Seibert, S. Spicher, S. Grimme, WIREs Comput. Mol. Sci., 2020, 11,
     e01493. DOI: 10.1002/wcms.1493
   
   for GFN2-xTB:
   * C. Bannwarth, S. Ehlert and S. Grimme., J. Chem. Theory Comput., 2019,
     15, 1652-1671. DOI: 10.1021/acs.jctc.8b01176
   for GFN1-xTB:
   * S. Grimme, C. Bannwarth, P. Shushkov, J. Chem. Theory Comput., 2017,
     13, 1989-2009. DOI: 10.1021/acs.jctc.7b00118
   for GFN0-xTB:
   * P. Pracht, E. Caldeweyher, S. Ehlert, S. Grimme, ChemRxiv, 2019, preprint.
     DOI: 10.26434/chemrxiv.8326202.v1
   for GFN-FF:
   * S. Spicher and S. Grimme, Angew. Chem. Int. Ed., 2020, 59, 15665-15673.
     DOI: 10.1002/anie.202004239
   
   for ALPB and GBSA implicit solvation:
   * S. Ehlert, M. Stahn, S. Spicher, S. Grimme, J. Chem. Theory Comput.,
     2021, 17, 4250-4261. DOI: 10.1021/acs.jctc.1c00471
   
   for ddCOSMO and CPCM-X implicit solvation:
   * M. Stahn, S. Ehlert, S. Grimme, J. Phys. Chem. A,
     2023, XX, XXXX-XXXX. DOI: 10.1021/acs.jpca.3c04382
   
   for DFT-D4:
   * E. Caldeweyher, C. Bannwarth and S. Grimme, J. Chem. Phys., 2017,
     147, 034112. DOI: 10.1063/1.4993215
   * E. Caldeweyher, S. Ehlert, A. Hansen, H. Neugebauer, S. Spicher,
     C. Bannwarth and S. Grimme, J. Chem. Phys., 2019, 150, 154122.
     DOI: 10.1063/1.5090222
   * E. Caldeweyher, J.-M. Mewes, S. Ehlert and S. Grimme, Phys. Chem. Chem. Phys.
     2020, 22, 8499-8512. DOI: 10.1039/D0CP00502A
   
   for sTDA-xTB:
   * S. Grimme and C. Bannwarth, J. Chem. Phys., 2016, 145, 054103.
     DOI: 10.1063/1.4959605
   
   in the mass-spec context:
   * V. Asgeirsson, C. Bauer and S. Grimme, Chem. Sci., 2017, 8, 4879.
     DOI: 10.1039/c7sc00601b
   * J. Koopman and S. Grimme, ACS Omega 2019, 4, 12, 15120-15133.
     DOI: 10.1021/acsomega.9b02011
   
   for metadynamics refer to:
   * S. Grimme, J. Chem. Theory Comput., 2019, 155, 2847-2862
     DOI: 10.1021/acs.jctc.9b00143
   
   for SPH calculations refer to:
   * S. Spicher and S. Grimme, J. Chem. Theory Comput., 2021, 17, 1701-1714
     DOI: 10.1021/acs.jctc.0c01306
   
   for ONIOM refer to:
   * C. Plett, A. Katbashev, S. Ehlert, S. Grimme, M. Bursch,
     Phys. Chem. Chem. Phys., 2023, 25, 17860-17868. DOI: 10.1039/D3CP02178E
   
   for DIPRO refer to:
   * J. Kohn, N. Gildemeister, S. Grimme, D. Fazzi, A. Hansen,
     J. Chem. Phys., 2023, just accepted.
   
   for PTB refer to:
   * S. Grimme, M. Mueller, A. Hansen, J. Chem. Phys., 2023, 158, 124111.
     DOI: 10.1063/5.0137838
   
   with help from (in alphabetical order)
   P. Atkinson, C. Bannwarth, F. Bohle, G. Brandenburg, E. Caldeweyher
   M. Checinski, S. Dohm, S. Ehlert, S. Ehrlich, I. Gerasimov, C. Hölzer
   A. Katbashev, J. Kohn, J. Koopman, C. Lavigne, S. Lehtola, F. März, M. Müller,
   F. Musil, H. Neugebauer, J. Pisarek, C. Plett, P. Pracht, F. Pultar,
   J. Seibert, P. Shushkov, S. Spicher, M. Stahn, M. Steiner, T. Strunk,
   J. Stückrath, T. Rose, and J. Unsleber
   
 * started run on 2025/06/25 at 12:06:41.693     
$$$$$$$$$$$$$$$$$$$$$$$$$$$$$$$$$$$$$$$$$$$$$$$$$$$$$$$$$$$$$$$$$$$$$$$$
 CONSTRAINTS & SCANS: DEBUG SECTION
$$$$$$$$$$$$$$$$$$$$$$$$$$$$$$$$$$$$$$$$$$$$$$$$$$$$$$$$$$$$$$$$$$$$$$$$
   ID    Z sym.   atoms
    1    6 C      1-6, 8-13
    2    7 N      7, 14
    3    1 H      15-22
$$$$$$$$$$$$$$$$$$$$$$$$$$$$$$$$$$$$$$$$$$$$$$$$$$$$$$$$$$$$$$$$$$$$$$$$

           -------------------------------------------------
          |                Calculation Setup                |
           -------------------------------------------------

          program call               : C:\Users\nkapa\Downloads\xtb-6.7.1pre-windows-x86_64\xtb-6.7.1\bin\xtb.EXE dft_tmp\mol_236.xyz --gfn2 --parallel 8 --verbose
          coordinate file            : dft_tmp\mol_236.xyz
          xtbhome directory          : C:\Users\nkapa\AppData\Roaming\SPB_Data
          path for xtb               : C:\Users\nkapa\Downloads\xtb-6.7.1pre-windows-x86_64\xtb-6.7.1\share\xtb
          xcontrol input file        : dft_tmp\mol_236.xyz
          omp threads                :                     8


           -------------------------------------------------
          |                 G F N 2 - x T B                 |
           -------------------------------------------------

        Reference                      10.1021/acs.jctc.8b01176
      * Hamiltonian:
        H0-scaling (s, p, d)           1.850000    2.230000    2.230000
        zeta-weighting                 0.500000
      * Dispersion:
        s8                             2.700000
        a1                             0.520000
        a2                             5.000000
        s9                             5.000000
      * Repulsion:
        kExp                           1.500000    1.000000
        rExp                           1.000000
      * Coulomb:
        alpha                          2.000000
        third order                    shell-resolved
        anisotropic                    true
        a3                             3.000000
        a5                             4.000000
        cn-shift                       1.200000
        cn-exp                         4.000000
        max-rad                        5.000000


          ...................................................
          :                      SETUP                      :
          :.................................................:
          :  # basis functions                  64          :
          :  # atomic orbitals                  64          :
          :  # shells                           36          :
          :  # electrons                        66          :
          :  max. iterations                   250          :
          :  Hamiltonian                  GFN2-xTB          :
          :  restarted?                      false          :
          :  GBSA solvation                  false          :
          :  PC potential                    false          :
          :  electronic temp.          300.0000000     K    :
          :  accuracy                    1.0000000          :
          :  -> integral cutoff          0.2500000E+02      :
          :  -> integral neglect         0.1000000E-07      :
          :  -> SCF convergence          0.1000000E-05 Eh   :
          :  -> wf. convergence          0.1000000E-03 e    :
          :  Broyden damping             0.4000000          :
          :  net charge                          0          :
          :  unpaired electrons                  0          :
          ...................................................

 iter      E             dE          RMSdq      gap      omega  full diag
   1    -36.1603792 -0.361604E+02  0.505E+00    1.32       0.0  T
   2    -36.1870532 -0.266740E-01  0.305E+00    0.99       1.0  T
   3    -36.1628001  0.242531E-01  0.147E+00    1.05       1.0  T
   4    -36.1953428 -0.325427E-01  0.350E-01    0.76       1.0  T
   5    -36.1976103 -0.226752E-02  0.132E-01    0.80       1.0  T
   6    -36.1978253 -0.214984E-03  0.335E-02    0.81       1.0  T
   7    -36.1978310 -0.573509E-05  0.162E-02    0.80       1.3  T
   8    -36.1978313 -0.257035E-06  0.178E-03    0.80      12.0  T
   9    -36.1978313 -0.404380E-07  0.726E-04    0.81      29.4  T
  10    -36.1978313 -0.730340E-08  0.689E-05    0.81     309.4  T

   *** convergence criteria satisfied after 10 iterations ***

         #    Occupation            Energy/Eh            Energy/eV
      -------------------------------------------------------------
         1        2.0000           -0.6685707             -18.1927
       ...           ...                  ...                  ...
        27        2.0000           -0.4405969             -11.9893
        28        2.0000           -0.4333498             -11.7920
        29        2.0000           -0.4163883             -11.3305
        30        2.0000           -0.4159116             -11.3175
        31        2.0000           -0.4012098             -10.9175
        32        2.0000           -0.3860100             -10.5039
        33        2.0000           -0.3477642              -9.4631 (HOMO)
        34        0.0000           -0.3181792              -8.6581 (LUMO)
        35                         -0.2423714              -6.5953
        36                         -0.2377249              -6.4688
        37                         -0.2063556              -5.6152
        38                         -0.1972148              -5.3665
       ...                                ...                  ...
        64                          0.6661688              18.1274
      -------------------------------------------------------------
                  HL-Gap            0.0295850 Eh            0.8050 eV
             Fermi-level           -0.3329717 Eh           -9.0606 eV

 SCC (total)                   0 d,  0 h,  0 min,  0.008 sec
 SCC setup                      ...        0 min,  0.000 sec (  0.000%)
 Dispersion                     ...        0 min,  0.001 sec ( 12.499%)
 classical contributions        ...        0 min,  0.000 sec (  0.000%)
 integral evaluation            ...        0 min,  0.000 sec (  0.000%)
 iterations                     ...        0 min,  0.005 sec ( 62.502%)
 molecular gradient             ...        0 min,  0.001 sec ( 12.499%)
 printout                       ...        0 min,  0.000 sec (  0.000%)

         :::::::::::::::::::::::::::::::::::::::::::::::::::::
         ::                     SUMMARY                     ::
         :::::::::::::::::::::::::::::::::::::::::::::::::::::
         :: total energy             -35.592986895981 Eh    ::
         :: gradient norm              0.116059861195 Eh/a0 ::
         :: HOMO-LUMO gap              0.805048033259 eV    ::
         ::.................................................::
         :: HOMO orbital eigv.        -9.463145770356 eV    ::
         :: LUMO orbital eigv.        -8.658097737097 eV    ::
         ::.................................................::
         :: SCC energy               -36.197915193979 Eh    ::
         :: -> isotropic ES            0.017927550242 Eh    ::
         :: -> anisotropic ES          0.002948932920 Eh    ::
         :: -> anisotropic XC          0.032770595405 Eh    ::
         :: -> dispersion             -0.023259689030 Eh    ::
         :: repulsion energy           0.604928297999 Eh    ::
         :: add. restraining           0.000000000000 Eh    ::
         :: total charge              -0.000000000000 e     ::
         ::.................................................::
         :: atomisation energy         7.909218369836 Eh    ::
         :::::::::::::::::::::::::::::::::::::::::::::::::::::

           -------------------------------------------------
          |                Property Printout                |
           -------------------------------------------------

    * Orbital Energies and Occupations

         #    Occupation            Energy/Eh            Energy/eV
      -------------------------------------------------------------
         1        2.0000           -0.6685707             -18.1927
       ...           ...                  ...                  ...
        21        2.0000           -0.4868544             -13.2480
        22        2.0000           -0.4848020             -13.1921
        23        2.0000           -0.4687969             -12.7566
        24        2.0000           -0.4593511             -12.4996
        25        2.0000           -0.4545091             -12.3678
        26        2.0000           -0.4512142             -12.2782
        27        2.0000           -0.4405969             -11.9893
        28        2.0000           -0.4333498             -11.7920
        29        2.0000           -0.4163883             -11.3305
        30        2.0000           -0.4159116             -11.3175
        31        2.0000           -0.4012098             -10.9175
        32        2.0000           -0.3860100             -10.5039
        33        2.0000           -0.3477642              -9.4631 (HOMO)
        34        0.0000           -0.3181792              -8.6581 (LUMO)
        35                         -0.2423714              -6.5953
        36                         -0.2377249              -6.4688
        37                         -0.2063556              -5.6152
        38                         -0.1972148              -5.3665
        39                         -0.1144882              -3.1154
        40                         -0.0647133              -1.7609
        41                          0.0801567               2.1812
        42                          0.0856754               2.3313
        43                          0.1206451               3.2829
        44                          0.1221788               3.3247
       ...                                ...                  ...
        64                          0.6661688              18.1274
      -------------------------------------------------------------
                  HL-Gap            0.0295850 Eh            0.8050 eV
             Fermi-level           -0.3329717 Eh           -9.0606 eV

     #   Z          covCN         q      C6AA      α(0)
     1   6 C        2.910    -0.026    28.647     8.776
     2   6 C        2.910    -0.026    28.647     8.776
     3   6 C        2.914    -0.038    28.940     8.821
     4   6 C        2.925     0.090    25.992     8.361
     5   6 C        2.925     0.090    25.992     8.361
     6   6 C        2.914    -0.038    28.940     8.821
     7   7 N        1.846    -0.246    27.258     7.738
     8   6 C        2.925     0.090    25.992     8.361
     9   6 C        2.914    -0.038    28.940     8.821
    10   6 C        2.910    -0.026    28.647     8.776
    11   6 C        2.910    -0.026    28.647     8.776
    12   6 C        2.914    -0.038    28.940     8.821
    13   6 C        2.925     0.090    25.992     8.361
    14   7 N        1.846    -0.246    27.258     7.738
    15   1 H        0.925     0.042     2.421     2.433
    16   1 H        0.925     0.042     2.421     2.433
    17   1 H        0.925     0.054     2.271     2.356
    18   1 H        0.925     0.054     2.271     2.356
    19   1 H        0.925     0.054     2.271     2.356
    20   1 H        0.925     0.042     2.421     2.433
    21   1 H        0.925     0.042     2.421     2.433
    22   1 H        0.925     0.054     2.271     2.356

 Mol. C6AA /au·bohr⁶  :       7389.678683
 Mol. C8AA /au·bohr⁸  :     186579.647948
 Mol. α(0) /au        :        138.468033


Wiberg/Mayer (AO) data.
largest (>0.10) Wiberg bond orders for each atom

 ---------------------------------------------------------------------------
     #   Z sym  total        # sym  WBO       # sym  WBO       # sym  WBO
 ---------------------------------------------------------------------------
     1   6 C    3.975 --     6 C    1.542     2 C    1.331    15 H    0.971
     2   6 C    3.975 --     3 C    1.542     1 C    1.331    16 H    0.971
     3   6 C    3.981 --     2 C    1.542     4 C    1.266    17 H    0.968
                             6 C    0.135
     4   6 C    3.981 --    14 N    1.358     3 C    1.266     5 C    1.171
     5   6 C    3.981 --     7 N    1.358     6 C    1.266     4 C    1.171
     6   6 C    3.981 --     1 C    1.542     5 C    1.266    18 H    0.968
                             3 C    0.135
     7   7 N    3.048 --     8 C    1.358     5 C    1.358    14 N    0.135
     8   6 C    3.981 --     7 N    1.358     9 C    1.266    13 C    1.171
     9   6 C    3.981 --    10 C    1.542     8 C    1.266    19 H    0.968
                            12 C    0.135
    10   6 C    3.975 --     9 C    1.542    11 C    1.331    20 H    0.971
    11   6 C    3.975 --    12 C    1.542    10 C    1.331    21 H    0.971
    12   6 C    3.981 --    11 C    1.542    13 C    1.266    22 H    0.968
                             9 C    0.135
    13   6 C    3.981 --    14 N    1.358    12 C    1.266     8 C    1.171
    14   7 N    3.048 --     4 C    1.358    13 C    1.358     7 N    0.135
    15   1 H    0.998 --     1 C    0.971
    16   1 H    0.998 --     2 C    0.971
    17   1 H    0.997 --     3 C    0.968
    18   1 H    0.997 --     6 C    0.968
    19   1 H    0.997 --     9 C    0.968
    20   1 H    0.998 --    10 C    0.971
    21   1 H    0.998 --    11 C    0.971
    22   1 H    0.997 --    12 C    0.968
 ---------------------------------------------------------------------------

Topologies differ in total number of bonds
Writing topology from bond orders to xtbtopo.mol

molecular dipole:
                 x           y           z       tot (Debye)
 q only:        0.000      -0.000      -0.000
   full:        0.000      -0.000      -0.000       0.000
molecular quadrupole (traceless):
                xx          xy          yy          xz          yz          zz
 q only:        9.410       1.718      -3.456       1.992       0.661      -5.954
  q+dip:       15.149       2.472      -3.927       3.346       1.600     -11.223
   full:       12.290       2.669      -6.876       2.400       0.090      -5.414


           -------------------------------------------------
          | TOTAL ENERGY              -35.592986895981 Eh   |
          | GRADIENT NORM               0.116059861195 Eh/α |
          | HOMO-LUMO GAP               0.805048033259 eV   |
           -------------------------------------------------
########################################################################
[WARNING] Runtime exception occurred
-2- restart_readRestart: Dimension missmatch in restart file.
-1- restart_readRestart: Number of electron missmatch in restart file.
########################################################################

------------------------------------------------------------------------
 unit  open   action     filename
  129 false : read       dft_tmp\mol_236.xyz
  129 false : read       dft_tmp\mol_236.xyz
  129 false : read       dft_tmp\mol_236.xyz
  129 false : read       C:\Users\nkapa\Downloads\xtb-6.7.1pre-windows-x86_64\xtb-6.7.1\share\xtb\param_gfn2-xtb.txt
  129 false : read       xtbrestart
  129 false : replaced   charges
  129 false : replaced   wbo
  129 false : replaced   xtbtopo.mol
  129 false : replaced   xtbrestart

------------------------------------------------------------------------
 * finished run on 2025/06/25 at 12:06:41.715     
------------------------------------------------------------------------
 total:
 * wall-time:     0 d,  0 h,  0 min,  0.022 sec
 *  cpu-time:     0 d,  0 h,  0 min,  0.109 sec
 * ratio c/w:     4.972 speedup
 SCF:
 * wall-time:     0 d,  0 h,  0 min,  0.008 sec
 *  cpu-time:     0 d,  0 h,  0 min,  0.109 sec
 * ratio c/w:    13.672 speedup

normal termination of xtb
