20

C -1.984140 -0.189154 -1.078244
C -1.154450 -0.443271 -0.009557
N -1.654464 0.164709 1.077036
C -2.783352 0.763177 0.653627
N -3.017969 0.569483 -0.662463
C 0.147481 -1.188968 -0.048173
C 1.305130 -0.285009 -0.509718
C 1.539609 0.825496 0.478290
O 2.057264 0.579499 1.601270
O 1.151252 2.123935 0.163435
N 2.526819 -1.076907 -0.660561
H -1.842081 -0.523810 -2.097294
H -1.251411 0.183418 2.040105
H -3.430144 1.345572 1.296351
H 0.041590 -2.044396 -0.750248
H 0.366658 -1.608711 0.958039
H 1.042624 0.160998 -1.496796
H 1.286764 2.880893 0.822753
H 3.284103 -0.448830 -1.017343
H 2.368717 -1.788123 -1.411415
