39

C -6.303365 0.212082 -0.193181
N -5.118585 -0.626365 0.027815
C -5.287345 -2.081885 0.120494
C -3.802556 -0.026125 0.153038
C -2.636578 -0.783849 -0.080703
C -1.372016 -0.199257 0.041982
C -1.235051 1.158363 0.401690
C -2.391028 1.909885 0.633566
C -3.657319 1.330247 0.511875
N -0.018986 1.772908 0.533666
C 1.221307 1.229912 0.354439
C 2.352884 2.017251 0.535095
C 3.633421 1.482051 0.356458
C 3.846738 0.122049 -0.014697
N 5.073134 -0.364682 -0.178873
C 6.271632 0.475949 0.014285
C 5.302160 -1.771983 -0.563165
C 2.697283 -0.694407 -0.202689
C 1.415808 -0.176457 -0.028606
S 0.027820 -1.103618 -0.239558
Cl 0.000000 0.000000 0.000000
H -6.108274 0.932589 -1.015701
H -6.554129 0.763693 0.736863
H -7.185817 -0.395784 -0.484952
H -4.891516 -2.566824 -0.796189
H -6.356174 -2.363521 0.228332
H -4.749216 -2.468713 1.011860
H -2.700982 -1.824310 -0.368965
H -2.311465 2.953529 0.913182
H -4.520172 1.949937 0.712011
H 2.246904 3.057856 0.817428
H 4.455820 2.164023 0.517231
H 6.308515 0.853314 1.058673
H 7.215121 -0.081581 -0.161191
H 6.260563 1.326029 -0.701084
H 6.380452 -2.016960 -0.658382
H 4.883126 -2.451395 0.209713
H 4.835137 -1.978701 -1.549921
H 2.772748 -1.735249 -0.484303
