      -----------------------------------------------------------      
     |                   =====================                   |     
     |                           x T B                           |     
     |                   =====================                   |     
     |                         S. Grimme                         |     
     |          Mulliken Center for Theoretical Chemistry        |     
     |                    University of Bonn                     |     
      -----------------------------------------------------------      

   * xtb version 6.7.1pre (5071a88) compiled by 'Marcel@Raven' on 2024-07-23

   xtb is free software: you can redistribute it and/or modify it under
   the terms of the GNU Lesser General Public License as published by
   the Free Software Foundation, either version 3 of the License, or
   (at your option) any later version.
   
   xtb is distributed in the hope that it will be useful,
   but WITHOUT ANY WARRANTY; without even the implied warranty of
   MERCHANTABILITY or FITNESS FOR A PARTICULAR PURPOSE.  See the
   GNU Lesser General Public License for more details.
   
   Cite this work as:
   * C. Bannwarth, E. Caldeweyher, S. Ehlert, A. Hansen, P. Pracht,
     J. Seibert, S. Spicher, S. Grimme, WIREs Comput. Mol. Sci., 2020, 11,
     e01493. DOI: 10.1002/wcms.1493
   
   for GFN2-xTB:
   * C. Bannwarth, S. Ehlert and S. Grimme., J. Chem. Theory Comput., 2019,
     15, 1652-1671. DOI: 10.1021/acs.jctc.8b01176
   for GFN1-xTB:
   * S. Grimme, C. Bannwarth, P. Shushkov, J. Chem. Theory Comput., 2017,
     13, 1989-2009. DOI: 10.1021/acs.jctc.7b00118
   for GFN0-xTB:
   * P. Pracht, E. Caldeweyher, S. Ehlert, S. Grimme, ChemRxiv, 2019, preprint.
     DOI: 10.26434/chemrxiv.8326202.v1
   for GFN-FF:
   * S. Spicher and S. Grimme, Angew. Chem. Int. Ed., 2020, 59, 15665-15673.
     DOI: 10.1002/anie.202004239
   
   for ALPB and GBSA implicit solvation:
   * S. Ehlert, M. Stahn, S. Spicher, S. Grimme, J. Chem. Theory Comput.,
     2021, 17, 4250-4261. DOI: 10.1021/acs.jctc.1c00471
   
   for ddCOSMO and CPCM-X implicit solvation:
   * M. Stahn, S. Ehlert, S. Grimme, J. Phys. Chem. A,
     2023, XX, XXXX-XXXX. DOI: 10.1021/acs.jpca.3c04382
   
   for DFT-D4:
   * E. Caldeweyher, C. Bannwarth and S. Grimme, J. Chem. Phys., 2017,
     147, 034112. DOI: 10.1063/1.4993215
   * E. Caldeweyher, S. Ehlert, A. Hansen, H. Neugebauer, S. Spicher,
     C. Bannwarth and S. Grimme, J. Chem. Phys., 2019, 150, 154122.
     DOI: 10.1063/1.5090222
   * E. Caldeweyher, J.-M. Mewes, S. Ehlert and S. Grimme, Phys. Chem. Chem. Phys.
     2020, 22, 8499-8512. DOI: 10.1039/D0CP00502A
   
   for sTDA-xTB:
   * S. Grimme and C. Bannwarth, J. Chem. Phys., 2016, 145, 054103.
     DOI: 10.1063/1.4959605
   
   in the mass-spec context:
   * V. Asgeirsson, C. Bauer and S. Grimme, Chem. Sci., 2017, 8, 4879.
     DOI: 10.1039/c7sc00601b
   * J. Koopman and S. Grimme, ACS Omega 2019, 4, 12, 15120-15133.
     DOI: 10.1021/acsomega.9b02011
   
   for metadynamics refer to:
   * S. Grimme, J. Chem. Theory Comput., 2019, 155, 2847-2862
     DOI: 10.1021/acs.jctc.9b00143
   
   for SPH calculations refer to:
   * S. Spicher and S. Grimme, J. Chem. Theory Comput., 2021, 17, 1701-1714
     DOI: 10.1021/acs.jctc.0c01306
   
   for ONIOM refer to:
   * C. Plett, A. Katbashev, S. Ehlert, S. Grimme, M. Bursch,
     Phys. Chem. Chem. Phys., 2023, 25, 17860-17868. DOI: 10.1039/D3CP02178E
   
   for DIPRO refer to:
   * J. Kohn, N. Gildemeister, S. Grimme, D. Fazzi, A. Hansen,
     J. Chem. Phys., 2023, just accepted.
   
   for PTB refer to:
   * S. Grimme, M. Mueller, A. Hansen, J. Chem. Phys., 2023, 158, 124111.
     DOI: 10.1063/5.0137838
   
   with help from (in alphabetical order)
   P. Atkinson, C. Bannwarth, F. Bohle, G. Brandenburg, E. Caldeweyher
   M. Checinski, S. Dohm, S. Ehlert, S. Ehrlich, I. Gerasimov, C. Hölzer
   A. Katbashev, J. Kohn, J. Koopman, C. Lavigne, S. Lehtola, F. März, M. Müller,
   F. Musil, H. Neugebauer, J. Pisarek, C. Plett, P. Pracht, F. Pultar,
   J. Seibert, P. Shushkov, S. Spicher, M. Stahn, M. Steiner, T. Strunk,
   J. Stückrath, T. Rose, and J. Unsleber
   
 * started run on 2025/06/25 at 12:06:45.800     
$$$$$$$$$$$$$$$$$$$$$$$$$$$$$$$$$$$$$$$$$$$$$$$$$$$$$$$$$$$$$$$$$$$$$$$$
 CONSTRAINTS & SCANS: DEBUG SECTION
$$$$$$$$$$$$$$$$$$$$$$$$$$$$$$$$$$$$$$$$$$$$$$$$$$$$$$$$$$$$$$$$$$$$$$$$
   ID    Z sym.   atoms
    1    6 C      1-3, 7, 9-11
    2    8 O      4, 5, 8, 12
    3    7 N      6
    4    1 H      13-19
$$$$$$$$$$$$$$$$$$$$$$$$$$$$$$$$$$$$$$$$$$$$$$$$$$$$$$$$$$$$$$$$$$$$$$$$

           -------------------------------------------------
          |                Calculation Setup                |
           -------------------------------------------------

          program call               : C:\Users\nkapa\Downloads\xtb-6.7.1pre-windows-x86_64\xtb-6.7.1\bin\xtb.EXE dft_tmp\mol_268.xyz --gfn2 --parallel 8 --verbose
          coordinate file            : dft_tmp\mol_268.xyz
          xtbhome directory          : C:\Users\nkapa\AppData\Roaming\SPB_Data
          path for xtb               : C:\Users\nkapa\Downloads\xtb-6.7.1pre-windows-x86_64\xtb-6.7.1\share\xtb
          xcontrol input file        : dft_tmp\mol_268.xyz
          omp threads                :                     8


           -------------------------------------------------
          |                 G F N 2 - x T B                 |
           -------------------------------------------------

        Reference                      10.1021/acs.jctc.8b01176
      * Hamiltonian:
        H0-scaling (s, p, d)           1.850000    2.230000    2.230000
        zeta-weighting                 0.500000
      * Dispersion:
        s8                             2.700000
        a1                             0.520000
        a2                             5.000000
        s9                             5.000000
      * Repulsion:
        kExp                           1.500000    1.000000
        rExp                           1.000000
      * Coulomb:
        alpha                          2.000000
        third order                    shell-resolved
        anisotropic                    true
        a3                             3.000000
        a5                             4.000000
        cn-shift                       1.200000
        cn-exp                         4.000000
        max-rad                        5.000000


          ...................................................
          :                      SETUP                      :
          :.................................................:
          :  # basis functions                  55          :
          :  # atomic orbitals                  55          :
          :  # shells                           31          :
          :  # electrons                        64          :
          :  max. iterations                   250          :
          :  Hamiltonian                  GFN2-xTB          :
          :  restarted?                      false          :
          :  GBSA solvation                  false          :
          :  PC potential                    false          :
          :  electronic temp.          300.0000000     K    :
          :  accuracy                    1.0000000          :
          :  -> integral cutoff          0.2500000E+02      :
          :  -> integral neglect         0.1000000E-07      :
          :  -> SCF convergence          0.1000000E-05 Eh   :
          :  -> wf. convergence          0.1000000E-03 e    :
          :  Broyden damping             0.4000000          :
          :  net charge                          0          :
          :  unpaired electrons                  0          :
          ...................................................

 iter      E             dE          RMSdq      gap      omega  full diag
   1    -37.8484472 -0.378484E+02  0.563E+00    3.09       0.0  T
   2    -37.9749053 -0.126458E+00  0.297E+00    2.74       1.0  T
   3    -37.9911714 -0.162662E-01  0.199E+00    3.22       1.0  T
   4    -38.0007377 -0.956626E-02  0.463E-01    3.09       1.0  T
   5    -38.0038214 -0.308370E-02  0.197E-01    3.15       1.0  T
   6    -38.0042728 -0.451387E-03  0.797E-02    3.14       1.0  T
   7    -38.0042895 -0.167232E-04  0.319E-02    3.13       1.0  T
   8    -38.0042915 -0.205199E-05  0.111E-02    3.12       2.1  T
   9    -38.0042927 -0.117995E-05  0.480E-03    3.12       4.8  T
  10    -38.0042928 -0.114419E-06  0.177E-03    3.13      13.0  T
  11    -38.0042929 -0.169760E-07  0.713E-04    3.13      32.2  T
  12    -38.0042929 -0.216748E-08  0.299E-04    3.12      76.8  T

   *** convergence criteria satisfied after 12 iterations ***

         #    Occupation            Energy/Eh            Energy/eV
      -------------------------------------------------------------
         1        2.0000           -0.7782886             -21.1783
       ...           ...                  ...                  ...
        26        2.0000           -0.4823354             -13.1250
        27        2.0000           -0.4794835             -13.0474
        28        2.0000           -0.4565113             -12.4223
        29        2.0000           -0.4483043             -12.1990
        30        2.0000           -0.4423032             -12.0357
        31        2.0000           -0.4322258             -11.7615
        32        2.0000           -0.4227282             -11.5030 (HOMO)
        33                         -0.3078877              -8.3781 (LUMO)
        34                         -0.2937242              -7.9926
        35                         -0.2547880              -6.9331
        36                         -0.1989912              -5.4148
        37                         -0.1636714              -4.4537
       ...                                ...                  ...
        55                          0.5813729              15.8200
      -------------------------------------------------------------
                  HL-Gap            0.1148405 Eh            3.1250 eV
             Fermi-level           -0.3653079 Eh           -9.9405 eV

 SCC (total)                   0 d,  0 h,  0 min,  0.007 sec
 SCC setup                      ...        0 min,  0.000 sec (  0.000%)
 Dispersion                     ...        0 min,  0.000 sec (  0.000%)
 classical contributions        ...        0 min,  0.000 sec (  0.000%)
 integral evaluation            ...        0 min,  0.001 sec ( 14.288%)
 iterations                     ...        0 min,  0.005 sec ( 71.427%)
 molecular gradient             ...        0 min,  0.001 sec ( 14.285%)
 printout                       ...        0 min,  0.000 sec (  0.000%)

         :::::::::::::::::::::::::::::::::::::::::::::::::::::
         ::                     SUMMARY                     ::
         :::::::::::::::::::::::::::::::::::::::::::::::::::::
         :: total energy             -37.663476158296 Eh    ::
         :: gradient norm              0.224524319712 Eh/a0 ::
         :: HOMO-LUMO gap              3.124968953589 eV    ::
         ::.................................................::
         :: HOMO orbital eigv.       -11.503019641906 eV    ::
         :: LUMO orbital eigv.        -8.378050688317 eV    ::
         ::.................................................::
         :: SCC energy               -38.004279417567 Eh    ::
         :: -> isotropic ES            0.099781619009 Eh    ::
         :: -> anisotropic ES         -0.000143334457 Eh    ::
         :: -> anisotropic XC          0.007669031820 Eh    ::
         :: -> dispersion             -0.014784824044 Eh    ::
         :: repulsion energy           0.340803259270 Eh    ::
         :: add. restraining           0.000000000000 Eh    ::
         :: total charge               0.000000000000 e     ::
         ::.................................................::
         :: atomisation energy         5.955092924052 Eh    ::
         :::::::::::::::::::::::::::::::::::::::::::::::::::::

           -------------------------------------------------
          |                Property Printout                |
           -------------------------------------------------

    * Orbital Energies and Occupations

         #    Occupation            Energy/Eh            Energy/eV
      -------------------------------------------------------------
         1        2.0000           -0.7782886             -21.1783
       ...           ...                  ...                  ...
        20        2.0000           -0.5427337             -14.7685
        21        2.0000           -0.5347138             -14.5503
        22        2.0000           -0.5183734             -14.1057
        23        2.0000           -0.5170021             -14.0683
        24        2.0000           -0.5060897             -13.7714
        25        2.0000           -0.5028423             -13.6830
        26        2.0000           -0.4823354             -13.1250
        27        2.0000           -0.4794835             -13.0474
        28        2.0000           -0.4565113             -12.4223
        29        2.0000           -0.4483043             -12.1990
        30        2.0000           -0.4423032             -12.0357
        31        2.0000           -0.4322258             -11.7615
        32        2.0000           -0.4227282             -11.5030 (HOMO)
        33                         -0.3078877              -8.3781 (LUMO)
        34                         -0.2937242              -7.9926
        35                         -0.2547880              -6.9331
        36                         -0.1989912              -5.4148
        37                         -0.1636714              -4.4537
        38                         -0.0033816              -0.0920
        39                          0.0321112               0.8738
        40                          0.0543800               1.4798
        41                          0.0652647               1.7759
        42                          0.0889137               2.4195
        43                          0.1046046               2.8464
       ...                                ...                  ...
        55                          0.5813729              15.8200
      -------------------------------------------------------------
                  HL-Gap            0.1148405 Eh            3.1250 eV
             Fermi-level           -0.3653079 Eh           -9.9405 eV

     #   Z          covCN         q      C6AA      α(0)
     1   6 C        2.839    -0.060    29.472     8.897
     2   6 C        2.886    -0.041    29.017     8.831
     3   6 C        2.696     0.345    21.146     7.526
     4   8 O        0.857    -0.372    21.133     6.163
     5   8 O        1.767    -0.169    16.840     5.541
     6   7 N        2.745     0.058    20.232     6.680
     7   6 C        2.846     0.260    22.636     7.797
     8   8 O        0.856    -0.376    21.199     6.173
     9   6 C        3.817    -0.090    22.193     6.705
    10   6 C        3.817    -0.090    22.198     6.705
    11   6 C        2.845     0.259    22.651     7.800
    12   8 O        0.856    -0.367    21.037     6.149
    13   1 H        0.925     0.082     1.960     2.189
    14   1 H        0.925     0.075     2.027     2.227
    15   1 H        0.925     0.097     1.809     2.103
    16   1 H        0.921     0.097     1.811     2.105
    17   1 H        0.921     0.097     1.810     2.104
    18   1 H        0.921     0.097     1.811     2.104
    19   1 H        0.921     0.096     1.819     2.109

 Mol. C6AA /au·bohr⁶  :       4368.056105
 Mol. C8AA /au·bohr⁸  :     101458.142640
 Mol. α(0) /au        :         99.910774


Wiberg/Mayer (AO) data.
largest (>0.10) Wiberg bond orders for each atom

 ---------------------------------------------------------------------------
     #   Z sym  total        # sym  WBO       # sym  WBO       # sym  WBO
 ---------------------------------------------------------------------------
     1   6 C    3.977 --     2 C    1.904    14 H    0.974    13 H    0.972
     2   6 C    3.979 --     1 C    1.904     3 C    1.052    15 H    0.956
     3   6 C    3.908 --     4 O    1.747     2 C    1.052     5 O    1.029
     4   8 O    2.047 --     3 C    1.747     5 O    0.149
     5   8 O    2.286 --     3 C    1.029     6 N    0.980     4 O    0.149
     6   7 N    3.540 --     7 C    1.096    11 C    1.086     5 O    0.980
                             8 O    0.139    12 O    0.136
     7   6 C    3.942 --     8 O    1.750     6 N    1.096     9 C    1.002
     8   8 O    2.044 --     7 C    1.750     6 N    0.139
     9   6 C    3.990 --     7 C    1.002    10 C    1.001    17 H    0.948
                            16 H    0.948
    10   6 C    3.990 --     9 C    1.001    11 C    1.001    19 H    0.950
                            18 H    0.948
    11   6 C    3.943 --    12 O    1.761     6 N    1.086    10 C    1.001
    12   8 O    2.055 --    11 C    1.761     6 N    0.136
    13   1 H    0.993 --     1 C    0.972
    14   1 H    0.994 --     1 C    0.974
    15   1 H    0.990 --     2 C    0.956
    16   1 H    0.990 --     9 C    0.948
    17   1 H    0.990 --     9 C    0.948
    18   1 H    0.990 --    10 C    0.948
    19   1 H    0.991 --    10 C    0.950
 ---------------------------------------------------------------------------

Topologies differ in total number of bonds
Writing topology from bond orders to xtbtopo.mol

molecular dipole:
                 x           y           z       tot (Debye)
 q only:       -0.463       0.636       0.665
   full:       -0.579       0.694       0.725       2.946
molecular quadrupole (traceless):
                xx          xy          yy          xz          yz          zz
 q only:       27.318       1.161     -21.802       3.207       3.296      -5.517
  q+dip:       29.595       1.080     -25.846       3.749       5.324      -3.749
   full:       28.241       1.489     -26.292       3.459       4.695      -1.949


           -------------------------------------------------
          | TOTAL ENERGY              -37.663476158296 Eh   |
          | GRADIENT NORM               0.224524319712 Eh/α |
          | HOMO-LUMO GAP               3.124968953589 eV   |
           -------------------------------------------------
########################################################################
[WARNING] Runtime exception occurred
-2- restart_readRestart: Dimension missmatch in restart file.
-1- restart_readRestart: Number of electron missmatch in restart file.
########################################################################

------------------------------------------------------------------------
 unit  open   action     filename
  129 false : read       dft_tmp\mol_268.xyz
  129 false : read       dft_tmp\mol_268.xyz
  129 false : read       dft_tmp\mol_268.xyz
  129 false : read       C:\Users\nkapa\Downloads\xtb-6.7.1pre-windows-x86_64\xtb-6.7.1\share\xtb\param_gfn2-xtb.txt
  129 false : read       xtbrestart
  129 false : replaced   charges
  129 false : replaced   wbo
  129 false : replaced   xtbtopo.mol
  129 false : replaced   xtbrestart

------------------------------------------------------------------------
 * finished run on 2025/06/25 at 12:06:45.831     
------------------------------------------------------------------------
 total:
 * wall-time:     0 d,  0 h,  0 min,  0.030 sec
 *  cpu-time:     0 d,  0 h,  0 min,  0.234 sec
 * ratio c/w:     7.813 speedup
 SCF:
 * wall-time:     0 d,  0 h,  0 min,  0.007 sec
 *  cpu-time:     0 d,  0 h,  0 min,  0.000 sec
 * ratio c/w:     0.000 speedup

normal termination of xtb
