      -----------------------------------------------------------      
     |                   =====================                   |     
     |                           x T B                           |     
     |                   =====================                   |     
     |                         S. Grimme                         |     
     |          Mulliken Center for Theoretical Chemistry        |     
     |                    University of Bonn                     |     
      -----------------------------------------------------------      

   * xtb version 6.7.1pre (5071a88) compiled by 'Marcel@Raven' on 2024-07-23

   xtb is free software: you can redistribute it and/or modify it under
   the terms of the GNU Lesser General Public License as published by
   the Free Software Foundation, either version 3 of the License, or
   (at your option) any later version.
   
   xtb is distributed in the hope that it will be useful,
   but WITHOUT ANY WARRANTY; without even the implied warranty of
   MERCHANTABILITY or FITNESS FOR A PARTICULAR PURPOSE.  See the
   GNU Lesser General Public License for more details.
   
   Cite this work as:
   * C. Bannwarth, E. Caldeweyher, S. Ehlert, A. Hansen, P. Pracht,
     J. Seibert, S. Spicher, S. Grimme, WIREs Comput. Mol. Sci., 2020, 11,
     e01493. DOI: 10.1002/wcms.1493
   
   for GFN2-xTB:
   * C. Bannwarth, S. Ehlert and S. Grimme., J. Chem. Theory Comput., 2019,
     15, 1652-1671. DOI: 10.1021/acs.jctc.8b01176
   for GFN1-xTB:
   * S. Grimme, C. Bannwarth, P. Shushkov, J. Chem. Theory Comput., 2017,
     13, 1989-2009. DOI: 10.1021/acs.jctc.7b00118
   for GFN0-xTB:
   * P. Pracht, E. Caldeweyher, S. Ehlert, S. Grimme, ChemRxiv, 2019, preprint.
     DOI: 10.26434/chemrxiv.8326202.v1
   for GFN-FF:
   * S. Spicher and S. Grimme, Angew. Chem. Int. Ed., 2020, 59, 15665-15673.
     DOI: 10.1002/anie.202004239
   
   for ALPB and GBSA implicit solvation:
   * S. Ehlert, M. Stahn, S. Spicher, S. Grimme, J. Chem. Theory Comput.,
     2021, 17, 4250-4261. DOI: 10.1021/acs.jctc.1c00471
   
   for ddCOSMO and CPCM-X implicit solvation:
   * M. Stahn, S. Ehlert, S. Grimme, J. Phys. Chem. A,
     2023, XX, XXXX-XXXX. DOI: 10.1021/acs.jpca.3c04382
   
   for DFT-D4:
   * E. Caldeweyher, C. Bannwarth and S. Grimme, J. Chem. Phys., 2017,
     147, 034112. DOI: 10.1063/1.4993215
   * E. Caldeweyher, S. Ehlert, A. Hansen, H. Neugebauer, S. Spicher,
     C. Bannwarth and S. Grimme, J. Chem. Phys., 2019, 150, 154122.
     DOI: 10.1063/1.5090222
   * E. Caldeweyher, J.-M. Mewes, S. Ehlert and S. Grimme, Phys. Chem. Chem. Phys.
     2020, 22, 8499-8512. DOI: 10.1039/D0CP00502A
   
   for sTDA-xTB:
   * S. Grimme and C. Bannwarth, J. Chem. Phys., 2016, 145, 054103.
     DOI: 10.1063/1.4959605
   
   in the mass-spec context:
   * V. Asgeirsson, C. Bauer and S. Grimme, Chem. Sci., 2017, 8, 4879.
     DOI: 10.1039/c7sc00601b
   * J. Koopman and S. Grimme, ACS Omega 2019, 4, 12, 15120-15133.
     DOI: 10.1021/acsomega.9b02011
   
   for metadynamics refer to:
   * S. Grimme, J. Chem. Theory Comput., 2019, 155, 2847-2862
     DOI: 10.1021/acs.jctc.9b00143
   
   for SPH calculations refer to:
   * S. Spicher and S. Grimme, J. Chem. Theory Comput., 2021, 17, 1701-1714
     DOI: 10.1021/acs.jctc.0c01306
   
   for ONIOM refer to:
   * C. Plett, A. Katbashev, S. Ehlert, S. Grimme, M. Bursch,
     Phys. Chem. Chem. Phys., 2023, 25, 17860-17868. DOI: 10.1039/D3CP02178E
   
   for DIPRO refer to:
   * J. Kohn, N. Gildemeister, S. Grimme, D. Fazzi, A. Hansen,
     J. Chem. Phys., 2023, just accepted.
   
   for PTB refer to:
   * S. Grimme, M. Mueller, A. Hansen, J. Chem. Phys., 2023, 158, 124111.
     DOI: 10.1063/5.0137838
   
   with help from (in alphabetical order)
   P. Atkinson, C. Bannwarth, F. Bohle, G. Brandenburg, E. Caldeweyher
   M. Checinski, S. Dohm, S. Ehlert, S. Ehrlich, I. Gerasimov, C. Hölzer
   A. Katbashev, J. Kohn, J. Koopman, C. Lavigne, S. Lehtola, F. März, M. Müller,
   F. Musil, H. Neugebauer, J. Pisarek, C. Plett, P. Pracht, F. Pultar,
   J. Seibert, P. Shushkov, S. Spicher, M. Stahn, M. Steiner, T. Strunk,
   J. Stückrath, T. Rose, and J. Unsleber
   
 * started run on 2025/06/25 at 12:06:46.062     
$$$$$$$$$$$$$$$$$$$$$$$$$$$$$$$$$$$$$$$$$$$$$$$$$$$$$$$$$$$$$$$$$$$$$$$$
 CONSTRAINTS & SCANS: DEBUG SECTION
$$$$$$$$$$$$$$$$$$$$$$$$$$$$$$$$$$$$$$$$$$$$$$$$$$$$$$$$$$$$$$$$$$$$$$$$
   ID    Z sym.   atoms
    1    6 C      1-7, 10
    2    9 F      8
    3    7 N      9
    4    8 O      11
    5    1 H      12-17
$$$$$$$$$$$$$$$$$$$$$$$$$$$$$$$$$$$$$$$$$$$$$$$$$$$$$$$$$$$$$$$$$$$$$$$$

           -------------------------------------------------
          |                Calculation Setup                |
           -------------------------------------------------

          program call               : C:\Users\nkapa\Downloads\xtb-6.7.1pre-windows-x86_64\xtb-6.7.1\bin\xtb.EXE dft_tmp\mol_270.xyz --gfn2 --parallel 8 --verbose
          coordinate file            : dft_tmp\mol_270.xyz
          xtbhome directory          : C:\Users\nkapa\AppData\Roaming\SPB_Data
          path for xtb               : C:\Users\nkapa\Downloads\xtb-6.7.1pre-windows-x86_64\xtb-6.7.1\share\xtb
          xcontrol input file        : dft_tmp\mol_270.xyz
          omp threads                :                     8


           -------------------------------------------------
          |                 G F N 2 - x T B                 |
           -------------------------------------------------

        Reference                      10.1021/acs.jctc.8b01176
      * Hamiltonian:
        H0-scaling (s, p, d)           1.850000    2.230000    2.230000
        zeta-weighting                 0.500000
      * Dispersion:
        s8                             2.700000
        a1                             0.520000
        a2                             5.000000
        s9                             5.000000
      * Repulsion:
        kExp                           1.500000    1.000000
        rExp                           1.000000
      * Coulomb:
        alpha                          2.000000
        third order                    shell-resolved
        anisotropic                    true
        a3                             3.000000
        a5                             4.000000
        cn-shift                       1.200000
        cn-exp                         4.000000
        max-rad                        5.000000


          ...................................................
          :                      SETUP                      :
          :.................................................:
          :  # basis functions                  50          :
          :  # atomic orbitals                  50          :
          :  # shells                           28          :
          :  # electrons                        56          :
          :  max. iterations                   250          :
          :  Hamiltonian                  GFN2-xTB          :
          :  restarted?                      false          :
          :  GBSA solvation                  false          :
          :  PC potential                    false          :
          :  electronic temp.          300.0000000     K    :
          :  accuracy                    1.0000000          :
          :  -> integral cutoff          0.2500000E+02      :
          :  -> integral neglect         0.1000000E-07      :
          :  -> SCF convergence          0.1000000E-05 Eh   :
          :  -> wf. convergence          0.1000000E-03 e    :
          :  Broyden damping             0.4000000          :
          :  net charge                          0          :
          :  unpaired electrons                  0          :
          ...................................................

 iter      E             dE          RMSdq      gap      omega  full diag
   1    -32.2401549 -0.322402E+02  0.484E+00    3.36       0.0  T
   2    -32.2971520 -0.569971E-01  0.280E+00    3.81       1.0  T
   3    -32.2990956 -0.194359E-02  0.143E+00    3.65       1.0  T
   4    -32.3028967 -0.380113E-02  0.348E-01    3.68       1.0  T
   5    -32.3042657 -0.136900E-02  0.920E-02    3.73       1.0  T
   6    -32.3042689 -0.314245E-05  0.518E-02    3.73       1.0  T
   7    -32.3042851 -0.162167E-04  0.184E-02    3.73       1.3  T
   8    -32.3042856 -0.544491E-06  0.638E-03    3.73       3.8  T
   9    -32.3042857 -0.395340E-08  0.272E-03    3.73       8.9  T
  10    -32.3042857 -0.897483E-07  0.851E-04    3.73      28.5  T
  11    -32.3042857 -0.211244E-08  0.395E-04    3.73      61.4  T

   *** convergence criteria satisfied after 11 iterations ***

         #    Occupation            Energy/Eh            Energy/eV
      -------------------------------------------------------------
         1        2.0000           -0.8209221             -22.3384
       ...           ...                  ...                  ...
        22        2.0000           -0.4887443             -13.2994
        23        2.0000           -0.4826856             -13.1345
        24        2.0000           -0.4529661             -12.3258
        25        2.0000           -0.4500756             -12.2472
        26        2.0000           -0.4279467             -11.6450
        27        2.0000           -0.4121261             -11.2145
        28        2.0000           -0.3969984             -10.8029 (HOMO)
        29                         -0.2600229              -7.0756 (LUMO)
        30                         -0.2566409              -6.9836
        31                         -0.2272777              -6.1845
        32                         -0.1216847              -3.3112
        33                         -0.0571890              -1.5562
       ...                                ...                  ...
        50                          0.6155361              16.7496
      -------------------------------------------------------------
                  HL-Gap            0.1369754 Eh            3.7273 eV
             Fermi-level           -0.3285107 Eh           -8.9392 eV

 SCC (total)                   0 d,  0 h,  0 min,  0.007 sec
 SCC setup                      ...        0 min,  0.000 sec (  0.000%)
 Dispersion                     ...        0 min,  0.001 sec ( 14.285%)
 classical contributions        ...        0 min,  0.000 sec (  0.000%)
 integral evaluation            ...        0 min,  0.000 sec (  0.000%)
 iterations                     ...        0 min,  0.005 sec ( 71.431%)
 molecular gradient             ...        0 min,  0.001 sec ( 14.285%)
 printout                       ...        0 min,  0.000 sec (  0.000%)

         :::::::::::::::::::::::::::::::::::::::::::::::::::::
         ::                     SUMMARY                     ::
         :::::::::::::::::::::::::::::::::::::::::::::::::::::
         :: total energy             -31.920722206772 Eh    ::
         :: gradient norm              0.136673887467 Eh/a0 ::
         :: HOMO-LUMO gap              3.727291663387 eV    ::
         ::.................................................::
         :: HOMO orbital eigv.       -10.802876083181 eV    ::
         :: LUMO orbital eigv.        -7.075584419795 eV    ::
         ::.................................................::
         :: SCC energy               -32.304254736468 Eh    ::
         :: -> isotropic ES            0.050314780868 Eh    ::
         :: -> anisotropic ES          0.000136252090 Eh    ::
         :: -> anisotropic XC          0.007953291018 Eh    ::
         :: -> dispersion             -0.014820972236 Eh    ::
         :: repulsion energy           0.383532529696 Eh    ::
         :: add. restraining           0.000000000000 Eh    ::
         :: total charge              -0.000000000000 e     ::
         ::.................................................::
         :: atomisation energy         5.662794865437 Eh    ::
         :::::::::::::::::::::::::::::::::::::::::::::::::::::

           -------------------------------------------------
          |                Property Printout                |
           -------------------------------------------------

    * Orbital Energies and Occupations

         #    Occupation            Energy/Eh            Energy/eV
      -------------------------------------------------------------
         1        2.0000           -0.8209221             -22.3384
       ...           ...                  ...                  ...
        16        2.0000           -0.5347792             -14.5521
        17        2.0000           -0.5176041             -14.0847
        18        2.0000           -0.5082222             -13.8294
        19        2.0000           -0.5026373             -13.6775
        20        2.0000           -0.4989373             -13.5768
        21        2.0000           -0.4970627             -13.5258
        22        2.0000           -0.4887443             -13.2994
        23        2.0000           -0.4826856             -13.1345
        24        2.0000           -0.4529661             -12.3258
        25        2.0000           -0.4500756             -12.2472
        26        2.0000           -0.4279467             -11.6450
        27        2.0000           -0.4121261             -11.2145
        28        2.0000           -0.3969984             -10.8029 (HOMO)
        29                         -0.2600229              -7.0756 (LUMO)
        30                         -0.2566409              -6.9836
        31                         -0.2272777              -6.1845
        32                         -0.1216847              -3.3112
        33                         -0.0571890              -1.5562
        34                          0.0209555               0.5702
        35                          0.0397064               1.0805
        36                          0.0901476               2.4530
        37                          0.1062016               2.8899
        38                          0.1214467               3.3047
        39                          0.1377942               3.7496
       ...                                ...                  ...
        50                          0.6155361              16.7496
      -------------------------------------------------------------
                  HL-Gap            0.1369754 Eh            3.7273 eV
             Fermi-level           -0.3285107 Eh           -8.9392 eV

     #   Z          covCN         q      C6AA      α(0)
     1   6 C        3.827    -0.084    22.072     6.685
     2   6 C        3.046    -0.004    28.086     8.692
     3   6 C        3.019     0.060    26.625     8.464
     4   6 C        2.909    -0.052    29.292     8.875
     5   6 C        2.912    -0.050    29.251     8.869
     6   6 C        2.768     0.160    24.520     8.110
     7   6 C        2.910    -0.056    29.402     8.891
     8   9 F        0.785    -0.220    11.447     3.996
     9   7 N        2.700    -0.159    24.435     7.342
    10   6 C        2.896     0.270    22.451     7.769
    11   8 O        0.856    -0.422    22.117     6.305
    12   1 H        0.922     0.093     1.849     2.126
    13   1 H        0.922     0.093     1.849     2.126
    14   1 H        0.925     0.052     2.297     2.370
    15   1 H        0.925     0.065     2.141     2.288
    16   1 H        0.925     0.064     2.147     2.292
    17   1 H        0.858     0.189     1.166     1.692

 Mol. C6AA /au·bohr⁶  :       3863.898666
 Mol. C8AA /au·bohr⁸  :      94301.567803
 Mol. α(0) /au        :         96.891427


Wiberg/Mayer (AO) data.
largest (>0.10) Wiberg bond orders for each atom

 ---------------------------------------------------------------------------
     #   Z sym  total        # sym  WBO       # sym  WBO       # sym  WBO
 ---------------------------------------------------------------------------
     1   6 C    3.996 --     2 C    1.017    10 C    0.998    12 H    0.935
                            13 H    0.935
     2   6 C    3.987 --     7 C    1.424     3 C    1.344     1 C    1.017
                             5 C    0.102
     3   6 C    3.964 --     4 C    1.373     2 C    1.344     9 N    1.088
     4   6 C    3.988 --     5 C    1.445     3 C    1.373    14 H    0.969
                             7 C    0.106
     5   6 C    3.987 --     4 C    1.445     6 C    1.388    15 H    0.968
                             2 C    0.102
     6   6 C    3.878 --     7 C    1.388     5 C    1.388     8 F    0.963
     7   6 C    3.988 --     2 C    1.424     6 C    1.388    16 H    0.966
                             4 C    0.106
     8   9 F    1.091 --     6 C    0.963
     9   7 N    3.486 --    10 C    1.163     3 C    1.088    17 H    0.934
                            11 O    0.167
    10   6 C    3.944 --    11 O    1.714     9 N    1.163     1 C    0.998
    11   8 O    2.002 --    10 C    1.714     9 N    0.167
    12   1 H    0.991 --     1 C    0.935
    13   1 H    0.991 --     1 C    0.935
    14   1 H    0.997 --     4 C    0.969
    15   1 H    0.995 --     5 C    0.968
    16   1 H    0.995 --     7 C    0.966
    17   1 H    0.964 --     9 N    0.934
 ---------------------------------------------------------------------------

Topologies differ in total number of bonds
Writing topology from bond orders to xtbtopo.mol

molecular dipole:
                 x           y           z       tot (Debye)
 q only:        0.578       0.307      -0.007
   full:        0.683       0.460      -0.022       2.093
molecular quadrupole (traceless):
                xx          xy          yy          xz          yz          zz
 q only:      -17.451       9.797      11.291      -2.898      -0.086       6.160
  q+dip:      -21.407      11.771      16.169      -3.366      -0.796       5.238
   full:      -22.051      11.226      14.215      -3.500      -0.169       7.836


           -------------------------------------------------
          | TOTAL ENERGY              -31.920722206772 Eh   |
          | GRADIENT NORM               0.136673887467 Eh/α |
          | HOMO-LUMO GAP               3.727291663387 eV   |
           -------------------------------------------------
########################################################################
[WARNING] Runtime exception occurred
-2- restart_readRestart: Dimension missmatch in restart file.
-1- restart_readRestart: Number of electron missmatch in restart file.
########################################################################

------------------------------------------------------------------------
 unit  open   action     filename
  129 false : read       dft_tmp\mol_270.xyz
  129 false : read       dft_tmp\mol_270.xyz
  129 false : read       dft_tmp\mol_270.xyz
  129 false : read       C:\Users\nkapa\Downloads\xtb-6.7.1pre-windows-x86_64\xtb-6.7.1\share\xtb\param_gfn2-xtb.txt
  129 false : read       xtbrestart
  129 false : replaced   charges
  129 false : replaced   wbo
  129 false : replaced   xtbtopo.mol
  129 false : replaced   xtbrestart

------------------------------------------------------------------------
 * finished run on 2025/06/25 at 12:06:46.100     
------------------------------------------------------------------------
 total:
 * wall-time:     0 d,  0 h,  0 min,  0.038 sec
 *  cpu-time:     0 d,  0 h,  0 min,  0.266 sec
 * ratio c/w:     6.990 speedup
 SCF:
 * wall-time:     0 d,  0 h,  0 min,  0.008 sec
 *  cpu-time:     0 d,  0 h,  0 min,  0.000 sec
 * ratio c/w:     0.000 speedup

normal termination of xtb
