17

C -1.734406 -0.927307 0.022203
C -0.280309 -0.582413 0.065116
C -0.094730 0.772812 -0.115927
C 1.177805 1.342415 -0.116457
C 2.284149 0.497859 0.073663
C 2.099364 -0.887640 0.259058
C 0.805693 -1.437611 0.255460
F 3.174211 -1.693379 0.441658
N -1.321490 1.455915 -0.290694
C -2.313125 0.437630 -0.208564
O -3.544710 0.672959 -0.319938
H -1.959030 -1.604847 -0.828310
H -2.074224 -1.345775 0.992923
H 1.310577 2.406895 -0.259477
H 3.283098 0.914358 0.077610
H 0.654882 -2.499982 0.397040
H -1.467754 2.478110 -0.445364
