21

C 3.805775 0.196582 -0.399841
O 2.590081 0.925865 -0.268150
C 1.317391 0.338987 -0.213234
C 0.200308 1.184751 -0.081438
C -1.072740 0.618157 -0.025250
C -1.246890 -0.747047 -0.096663
C -0.165497 -1.614489 -0.227240
C 1.126165 -1.066281 -0.285887
N -2.612122 -1.111401 -0.021463
C -3.305984 0.125280 0.104098
O -4.559087 0.199171 0.198205
C -2.389556 1.313012 0.111554
H 3.934516 -0.490132 0.463339
H 3.804929 -0.378757 -1.349691
H 4.655836 0.908946 -0.416839
H 0.324753 2.258627 -0.024369
H -0.316183 -2.684820 -0.282216
H 1.967373 -1.738027 -0.387275
H -3.020231 -2.072005 -0.051302
H -2.453837 1.860428 1.075453
H -2.585000 1.973152 -0.759602
