      -----------------------------------------------------------      
     |                   =====================                   |     
     |                           x T B                           |     
     |                   =====================                   |     
     |                         S. Grimme                         |     
     |          Mulliken Center for Theoretical Chemistry        |     
     |                    University of Bonn                     |     
      -----------------------------------------------------------      

   * xtb version 6.7.1pre (5071a88) compiled by 'Marcel@Raven' on 2024-07-23

   xtb is free software: you can redistribute it and/or modify it under
   the terms of the GNU Lesser General Public License as published by
   the Free Software Foundation, either version 3 of the License, or
   (at your option) any later version.
   
   xtb is distributed in the hope that it will be useful,
   but WITHOUT ANY WARRANTY; without even the implied warranty of
   MERCHANTABILITY or FITNESS FOR A PARTICULAR PURPOSE.  See the
   GNU Lesser General Public License for more details.
   
   Cite this work as:
   * C. Bannwarth, E. Caldeweyher, S. Ehlert, A. Hansen, P. Pracht,
     J. Seibert, S. Spicher, S. Grimme, WIREs Comput. Mol. Sci., 2020, 11,
     e01493. DOI: 10.1002/wcms.1493
   
   for GFN2-xTB:
   * C. Bannwarth, S. Ehlert and S. Grimme., J. Chem. Theory Comput., 2019,
     15, 1652-1671. DOI: 10.1021/acs.jctc.8b01176
   for GFN1-xTB:
   * S. Grimme, C. Bannwarth, P. Shushkov, J. Chem. Theory Comput., 2017,
     13, 1989-2009. DOI: 10.1021/acs.jctc.7b00118
   for GFN0-xTB:
   * P. Pracht, E. Caldeweyher, S. Ehlert, S. Grimme, ChemRxiv, 2019, preprint.
     DOI: 10.26434/chemrxiv.8326202.v1
   for GFN-FF:
   * S. Spicher and S. Grimme, Angew. Chem. Int. Ed., 2020, 59, 15665-15673.
     DOI: 10.1002/anie.202004239
   
   for ALPB and GBSA implicit solvation:
   * S. Ehlert, M. Stahn, S. Spicher, S. Grimme, J. Chem. Theory Comput.,
     2021, 17, 4250-4261. DOI: 10.1021/acs.jctc.1c00471
   
   for ddCOSMO and CPCM-X implicit solvation:
   * M. Stahn, S. Ehlert, S. Grimme, J. Phys. Chem. A,
     2023, XX, XXXX-XXXX. DOI: 10.1021/acs.jpca.3c04382
   
   for DFT-D4:
   * E. Caldeweyher, C. Bannwarth and S. Grimme, J. Chem. Phys., 2017,
     147, 034112. DOI: 10.1063/1.4993215
   * E. Caldeweyher, S. Ehlert, A. Hansen, H. Neugebauer, S. Spicher,
     C. Bannwarth and S. Grimme, J. Chem. Phys., 2019, 150, 154122.
     DOI: 10.1063/1.5090222
   * E. Caldeweyher, J.-M. Mewes, S. Ehlert and S. Grimme, Phys. Chem. Chem. Phys.
     2020, 22, 8499-8512. DOI: 10.1039/D0CP00502A
   
   for sTDA-xTB:
   * S. Grimme and C. Bannwarth, J. Chem. Phys., 2016, 145, 054103.
     DOI: 10.1063/1.4959605
   
   in the mass-spec context:
   * V. Asgeirsson, C. Bauer and S. Grimme, Chem. Sci., 2017, 8, 4879.
     DOI: 10.1039/c7sc00601b
   * J. Koopman and S. Grimme, ACS Omega 2019, 4, 12, 15120-15133.
     DOI: 10.1021/acsomega.9b02011
   
   for metadynamics refer to:
   * S. Grimme, J. Chem. Theory Comput., 2019, 155, 2847-2862
     DOI: 10.1021/acs.jctc.9b00143
   
   for SPH calculations refer to:
   * S. Spicher and S. Grimme, J. Chem. Theory Comput., 2021, 17, 1701-1714
     DOI: 10.1021/acs.jctc.0c01306
   
   for ONIOM refer to:
   * C. Plett, A. Katbashev, S. Ehlert, S. Grimme, M. Bursch,
     Phys. Chem. Chem. Phys., 2023, 25, 17860-17868. DOI: 10.1039/D3CP02178E
   
   for DIPRO refer to:
   * J. Kohn, N. Gildemeister, S. Grimme, D. Fazzi, A. Hansen,
     J. Chem. Phys., 2023, just accepted.
   
   for PTB refer to:
   * S. Grimme, M. Mueller, A. Hansen, J. Chem. Phys., 2023, 158, 124111.
     DOI: 10.1063/5.0137838
   
   with help from (in alphabetical order)
   P. Atkinson, C. Bannwarth, F. Bohle, G. Brandenburg, E. Caldeweyher
   M. Checinski, S. Dohm, S. Ehlert, S. Ehrlich, I. Gerasimov, C. Hölzer
   A. Katbashev, J. Kohn, J. Koopman, C. Lavigne, S. Lehtola, F. März, M. Müller,
   F. Musil, H. Neugebauer, J. Pisarek, C. Plett, P. Pracht, F. Pultar,
   J. Seibert, P. Shushkov, S. Spicher, M. Stahn, M. Steiner, T. Strunk,
   J. Stückrath, T. Rose, and J. Unsleber
   
 * started run on 2025/06/25 at 12:07:09.036     
$$$$$$$$$$$$$$$$$$$$$$$$$$$$$$$$$$$$$$$$$$$$$$$$$$$$$$$$$$$$$$$$$$$$$$$$
 CONSTRAINTS & SCANS: DEBUG SECTION
$$$$$$$$$$$$$$$$$$$$$$$$$$$$$$$$$$$$$$$$$$$$$$$$$$$$$$$$$$$$$$$$$$$$$$$$
   ID    Z sym.   atoms
    1    8 O      1, 7
    2    6 C      2, 3, 5, 6
    3    7 N      4
    4    1 H      8-18
$$$$$$$$$$$$$$$$$$$$$$$$$$$$$$$$$$$$$$$$$$$$$$$$$$$$$$$$$$$$$$$$$$$$$$$$

           -------------------------------------------------
          |                Calculation Setup                |
           -------------------------------------------------

          program call               : C:\Users\nkapa\Downloads\xtb-6.7.1pre-windows-x86_64\xtb-6.7.1\bin\xtb.EXE dft_tmp\mol_441.xyz --gfn2 --parallel 8 --verbose
          coordinate file            : dft_tmp\mol_441.xyz
          xtbhome directory          : C:\Users\nkapa\AppData\Roaming\SPB_Data
          path for xtb               : C:\Users\nkapa\Downloads\xtb-6.7.1pre-windows-x86_64\xtb-6.7.1\share\xtb
          xcontrol input file        : dft_tmp\mol_441.xyz
          omp threads                :                     8


           -------------------------------------------------
          |                 G F N 2 - x T B                 |
           -------------------------------------------------

        Reference                      10.1021/acs.jctc.8b01176
      * Hamiltonian:
        H0-scaling (s, p, d)           1.850000    2.230000    2.230000
        zeta-weighting                 0.500000
      * Dispersion:
        s8                             2.700000
        a1                             0.520000
        a2                             5.000000
        s9                             5.000000
      * Repulsion:
        kExp                           1.500000    1.000000
        rExp                           1.000000
      * Coulomb:
        alpha                          2.000000
        third order                    shell-resolved
        anisotropic                    true
        a3                             3.000000
        a5                             4.000000
        cn-shift                       1.200000
        cn-exp                         4.000000
        max-rad                        5.000000


          ...................................................
          :                      SETUP                      :
          :.................................................:
          :  # basis functions                  39          :
          :  # atomic orbitals                  39          :
          :  # shells                           25          :
          :  # electrons                        44          :
          :  max. iterations                   250          :
          :  Hamiltonian                  GFN2-xTB          :
          :  restarted?                      false          :
          :  GBSA solvation                  false          :
          :  PC potential                    false          :
          :  electronic temp.          300.0000000     K    :
          :  accuracy                    1.0000000          :
          :  -> integral cutoff          0.2500000E+02      :
          :  -> integral neglect         0.1000000E-07      :
          :  -> SCF convergence          0.1000000E-05 Eh   :
          :  -> wf. convergence          0.1000000E-03 e    :
          :  Broyden damping             0.4000000          :
          :  net charge                          0          :
          :  unpaired electrons                  0          :
          ...................................................

 iter      E             dE          RMSdq      gap      omega  full diag
   1    -25.3734601 -0.253735E+02  0.389E+00    9.81       0.0  T
   2    -25.4025930 -0.291330E-01  0.218E+00    9.91       1.0  T
   3    -25.4035529 -0.959917E-03  0.705E-01    9.88       1.0  T
   4    -25.4039540 -0.401080E-03  0.131E-01    9.80       1.0  T
   5    -25.4040003 -0.462579E-04  0.625E-02    9.79       1.0  T
   6    -25.4040040 -0.367225E-05  0.199E-02    9.79       1.2  T
   7    -25.4040044 -0.436778E-06  0.648E-03    9.79       3.6  T
   8    -25.4040044 -0.445605E-07  0.164E-03    9.79      14.3  T
   9    -25.4040044 -0.275256E-08  0.401E-04    9.79      58.7  T
  10    -25.4040044 -0.448164E-09  0.958E-05    9.79     246.0  T

   *** convergence criteria satisfied after 10 iterations ***

         #    Occupation            Energy/Eh            Energy/eV
      -------------------------------------------------------------
         1        2.0000           -0.6913874             -18.8136
       ...           ...                  ...                  ...
        16        2.0000           -0.4735746             -12.8866
        17        2.0000           -0.4653863             -12.6638
        18        2.0000           -0.4500982             -12.2478
        19        2.0000           -0.4320200             -11.7559
        20        2.0000           -0.4186639             -11.3924
        21        2.0000           -0.4117148             -11.2033
        22        2.0000           -0.3637959              -9.8994 (HOMO)
        23                         -0.0040105              -0.1091 (LUMO)
        24                          0.0459662               1.2508
        25                          0.0536787               1.4607
        26                          0.0707320               1.9247
        27                          0.0803036               2.1852
       ...                                ...                  ...
        39                          0.2680510               7.2940
      -------------------------------------------------------------
                  HL-Gap            0.3597854 Eh            9.7903 eV
             Fermi-level           -0.1839032 Eh           -5.0043 eV

 SCC (total)                   0 d,  0 h,  0 min,  0.005 sec
 SCC setup                      ...        0 min,  0.000 sec (  0.000%)
 Dispersion                     ...        0 min,  0.001 sec ( 19.998%)
 classical contributions        ...        0 min,  0.000 sec (  0.000%)
 integral evaluation            ...        0 min,  0.000 sec (  0.000%)
 iterations                     ...        0 min,  0.003 sec ( 59.999%)
 molecular gradient             ...        0 min,  0.001 sec ( 20.003%)
 printout                       ...        0 min,  0.000 sec (  0.000%)

         :::::::::::::::::::::::::::::::::::::::::::::::::::::
         ::                     SUMMARY                     ::
         :::::::::::::::::::::::::::::::::::::::::::::::::::::
         :: total energy             -25.190959389436 Eh    ::
         :: gradient norm              0.065158160415 Eh/a0 ::
         :: HOMO-LUMO gap              9.790260336515 eV    ::
         ::.................................................::
         :: HOMO orbital eigv.        -9.899390606397 eV    ::
         :: LUMO orbital eigv.        -0.109130269882 eV    ::
         ::.................................................::
         :: SCC energy               -25.404004175989 Eh    ::
         :: -> isotropic ES            0.055710115779 Eh    ::
         :: -> anisotropic ES          0.006598266084 Eh    ::
         :: -> anisotropic XC          0.008698876244 Eh    ::
         :: -> dispersion             -0.009784716791 Eh    ::
         :: repulsion energy           0.213044786553 Eh    ::
         :: add. restraining           0.000000000000 Eh    ::
         :: total charge              -0.000000000000 e     ::
         ::.................................................::
         :: atomisation energy         4.308869100540 Eh    ::
         :::::::::::::::::::::::::::::::::::::::::::::::::::::

           -------------------------------------------------
          |                Property Printout                |
           -------------------------------------------------

    * Orbital Energies and Occupations

         #    Occupation            Energy/Eh            Energy/eV
      -------------------------------------------------------------
         1        2.0000           -0.6913874             -18.8136
       ...           ...                  ...                  ...
        10        2.0000           -0.5473827             -14.8950
        11        2.0000           -0.5309539             -14.4480
        12        2.0000           -0.5223642             -14.2143
        13        2.0000           -0.5168019             -14.0629
        14        2.0000           -0.4989790             -13.5779
        15        2.0000           -0.4931611             -13.4196
        16        2.0000           -0.4735746             -12.8866
        17        2.0000           -0.4653863             -12.6638
        18        2.0000           -0.4500982             -12.2478
        19        2.0000           -0.4320200             -11.7559
        20        2.0000           -0.4186639             -11.3924
        21        2.0000           -0.4117148             -11.2033
        22        2.0000           -0.3637959              -9.8994 (HOMO)
        23                         -0.0040105              -0.1091 (LUMO)
        24                          0.0459662               1.2508
        25                          0.0536787               1.4607
        26                          0.0707320               1.9247
        27                          0.0803036               2.1852
        28                          0.0985557               2.6818
        29                          0.1115513               3.0355
        30                          0.1197384               3.2582
        31                          0.1339432               3.6448
        32                          0.1384691               3.7679
        33                          0.1557888               4.2392
       ...                                ...                  ...
        39                          0.2680510               7.2940
      -------------------------------------------------------------
                  HL-Gap            0.3597854 Eh            9.7903 eV
             Fermi-level           -0.1839032 Eh           -5.0043 eV

     #   Z          covCN         q      C6AA      α(0)
     1   8 O        1.652    -0.430    21.437     6.250
     2   6 C        3.670     0.077    19.531     6.335
     3   6 C        3.735     0.007    20.541     6.468
     4   7 N        2.674    -0.260    26.750     7.681
     5   6 C        3.734     0.004    20.591     6.476
     6   6 C        3.670     0.078    19.512     6.332
     7   8 O        1.652    -0.435    21.534     6.264
     8   1 H        0.801     0.286     0.764     1.373
     9   1 H        0.921     0.058     2.220     2.330
    10   1 H        0.921     0.015     2.812     2.623
    11   1 H        0.921     0.008     2.922     2.673
    12   1 H        0.921     0.033     2.540     2.493
    13   1 H        0.857     0.146     1.427     1.871
    14   1 H        0.921     0.022     2.700     2.570
    15   1 H        0.921     0.027     2.624     2.533
    16   1 H        0.922     0.046     2.367     2.406
    17   1 H        0.921     0.026     2.638     2.540
    18   1 H        0.801     0.288     0.759     1.369

 Mol. C6AA /au·bohr⁶  :       2310.369595
 Mol. C8AA /au·bohr⁸  :      47015.980684
 Mol. α(0) /au        :         70.588885


Wiberg/Mayer (AO) data.
largest (>0.10) Wiberg bond orders for each atom

 ---------------------------------------------------------------------------
     #   Z sym  total        # sym  WBO       # sym  WBO       # sym  WBO
 ---------------------------------------------------------------------------
     1   8 O    1.969 --     2 C    1.006     8 H    0.903
     2   6 C    3.958 --     1 O    1.006     3 C    0.993    10 H    0.970
                             9 H    0.969
     3   6 C    3.989 --     4 N    1.014     2 C    0.993    12 H    0.972
                            11 H    0.966
     4   7 N    3.053 --     3 C    1.014     5 C    1.011    13 H    0.955
     5   6 C    3.987 --     4 N    1.011     6 C    0.991    15 H    0.976
                            14 H    0.967
     6   6 C    3.956 --     7 O    1.003     5 C    0.991    17 H    0.972
                            16 H    0.969
     7   8 O    1.964 --     6 C    1.003    18 H    0.903
     8   1 H    0.918 --     1 O    0.903
     9   1 H    0.997 --     2 C    0.969
    10   1 H    0.999 --     2 C    0.970
    11   1 H    1.000 --     3 C    0.966
    12   1 H    0.999 --     3 C    0.972
    13   1 H    0.979 --     4 N    0.955
    14   1 H    1.000 --     5 C    0.967
    15   1 H    0.999 --     5 C    0.976
    16   1 H    0.998 --     6 C    0.969
    17   1 H    0.999 --     6 C    0.972
    18   1 H    0.917 --     7 O    0.903
 ---------------------------------------------------------------------------

Topologies differ in total number of bonds
Writing topology from bond orders to xtbtopo.mol

molecular dipole:
                 x           y           z       tot (Debye)
 q only:       -0.150      -0.230      -0.163
   full:       -0.180      -0.518      -0.488       1.867
molecular quadrupole (traceless):
                xx          xy          yy          xz          yz          zz
 q only:       -3.335      -3.691       1.864       8.972       0.807       1.471
  q+dip:       -6.972      -5.463       3.515      13.487       1.560       3.457
   full:       -5.818      -5.219       3.220      13.339       1.175       2.597


           -------------------------------------------------
          | TOTAL ENERGY              -25.190959389436 Eh   |
          | GRADIENT NORM               0.065158160415 Eh/α |
          | HOMO-LUMO GAP               9.790260336515 eV   |
           -------------------------------------------------
########################################################################
[WARNING] Runtime exception occurred
-2- restart_readRestart: Dimension missmatch in restart file.
-1- restart_readRestart: Number of electron missmatch in restart file.
########################################################################

------------------------------------------------------------------------
 unit  open   action     filename
  129 false : read       dft_tmp\mol_441.xyz
  129 false : read       dft_tmp\mol_441.xyz
  129 false : read       dft_tmp\mol_441.xyz
  129 false : read       C:\Users\nkapa\Downloads\xtb-6.7.1pre-windows-x86_64\xtb-6.7.1\share\xtb\param_gfn2-xtb.txt
  129 false : read       xtbrestart
  129 false : replaced   charges
  129 false : replaced   wbo
  129 false : replaced   xtbtopo.mol
  129 false : replaced   xtbrestart

------------------------------------------------------------------------
 * finished run on 2025/06/25 at 12:07:09.064     
------------------------------------------------------------------------
 total:
 * wall-time:     0 d,  0 h,  0 min,  0.027 sec
 *  cpu-time:     0 d,  0 h,  0 min,  0.125 sec
 * ratio c/w:     4.630 speedup
 SCF:
 * wall-time:     0 d,  0 h,  0 min,  0.005 sec
 *  cpu-time:     0 d,  0 h,  0 min,  0.000 sec
 * ratio c/w:     0.000 speedup

normal termination of xtb
