21

C 1.600683 1.491065 1.549067
N 1.000626 0.487792 0.663206
C 1.841831 -0.538044 0.038705
C -0.428598 0.474043 0.460576
N -1.195395 1.199995 1.213595
N -1.014721 -0.349700 -0.561137
C -0.728860 -0.094835 -1.972115
C -1.906859 -1.444057 -0.182022
H 1.217144 1.357248 2.582578
H 2.707714 1.409285 1.572594
H 1.340280 2.509353 1.190471
H 1.411967 -1.544944 0.225650
H 2.872369 -0.528274 0.451595
H 1.907280 -0.360155 -1.053840
H -2.232278 1.214106 1.090909
H -0.207660 -0.970512 -2.412893
H -1.678843 0.078025 -2.520307
H -0.088111 0.805240 -2.092184
H -2.240026 -2.012376 -1.076882
H -1.374453 -2.140812 0.499237
H -2.804091 -1.042442 0.333196
