      -----------------------------------------------------------      
     |                   =====================                   |     
     |                           x T B                           |     
     |                   =====================                   |     
     |                         S. Grimme                         |     
     |          Mulliken Center for Theoretical Chemistry        |     
     |                    University of Bonn                     |     
      -----------------------------------------------------------      

   * xtb version 6.7.1pre (5071a88) compiled by 'Marcel@Raven' on 2024-07-23

   xtb is free software: you can redistribute it and/or modify it under
   the terms of the GNU Lesser General Public License as published by
   the Free Software Foundation, either version 3 of the License, or
   (at your option) any later version.
   
   xtb is distributed in the hope that it will be useful,
   but WITHOUT ANY WARRANTY; without even the implied warranty of
   MERCHANTABILITY or FITNESS FOR A PARTICULAR PURPOSE.  See the
   GNU Lesser General Public License for more details.
   
   Cite this work as:
   * C. Bannwarth, E. Caldeweyher, S. Ehlert, A. Hansen, P. Pracht,
     J. Seibert, S. Spicher, S. Grimme, WIREs Comput. Mol. Sci., 2020, 11,
     e01493. DOI: 10.1002/wcms.1493
   
   for GFN2-xTB:
   * C. Bannwarth, S. Ehlert and S. Grimme., J. Chem. Theory Comput., 2019,
     15, 1652-1671. DOI: 10.1021/acs.jctc.8b01176
   for GFN1-xTB:
   * S. Grimme, C. Bannwarth, P. Shushkov, J. Chem. Theory Comput., 2017,
     13, 1989-2009. DOI: 10.1021/acs.jctc.7b00118
   for GFN0-xTB:
   * P. Pracht, E. Caldeweyher, S. Ehlert, S. Grimme, ChemRxiv, 2019, preprint.
     DOI: 10.26434/chemrxiv.8326202.v1
   for GFN-FF:
   * S. Spicher and S. Grimme, Angew. Chem. Int. Ed., 2020, 59, 15665-15673.
     DOI: 10.1002/anie.202004239
   
   for ALPB and GBSA implicit solvation:
   * S. Ehlert, M. Stahn, S. Spicher, S. Grimme, J. Chem. Theory Comput.,
     2021, 17, 4250-4261. DOI: 10.1021/acs.jctc.1c00471
   
   for ddCOSMO and CPCM-X implicit solvation:
   * M. Stahn, S. Ehlert, S. Grimme, J. Phys. Chem. A,
     2023, XX, XXXX-XXXX. DOI: 10.1021/acs.jpca.3c04382
   
   for DFT-D4:
   * E. Caldeweyher, C. Bannwarth and S. Grimme, J. Chem. Phys., 2017,
     147, 034112. DOI: 10.1063/1.4993215
   * E. Caldeweyher, S. Ehlert, A. Hansen, H. Neugebauer, S. Spicher,
     C. Bannwarth and S. Grimme, J. Chem. Phys., 2019, 150, 154122.
     DOI: 10.1063/1.5090222
   * E. Caldeweyher, J.-M. Mewes, S. Ehlert and S. Grimme, Phys. Chem. Chem. Phys.
     2020, 22, 8499-8512. DOI: 10.1039/D0CP00502A
   
   for sTDA-xTB:
   * S. Grimme and C. Bannwarth, J. Chem. Phys., 2016, 145, 054103.
     DOI: 10.1063/1.4959605
   
   in the mass-spec context:
   * V. Asgeirsson, C. Bauer and S. Grimme, Chem. Sci., 2017, 8, 4879.
     DOI: 10.1039/c7sc00601b
   * J. Koopman and S. Grimme, ACS Omega 2019, 4, 12, 15120-15133.
     DOI: 10.1021/acsomega.9b02011
   
   for metadynamics refer to:
   * S. Grimme, J. Chem. Theory Comput., 2019, 155, 2847-2862
     DOI: 10.1021/acs.jctc.9b00143
   
   for SPH calculations refer to:
   * S. Spicher and S. Grimme, J. Chem. Theory Comput., 2021, 17, 1701-1714
     DOI: 10.1021/acs.jctc.0c01306
   
   for ONIOM refer to:
   * C. Plett, A. Katbashev, S. Ehlert, S. Grimme, M. Bursch,
     Phys. Chem. Chem. Phys., 2023, 25, 17860-17868. DOI: 10.1039/D3CP02178E
   
   for DIPRO refer to:
   * J. Kohn, N. Gildemeister, S. Grimme, D. Fazzi, A. Hansen,
     J. Chem. Phys., 2023, just accepted.
   
   for PTB refer to:
   * S. Grimme, M. Mueller, A. Hansen, J. Chem. Phys., 2023, 158, 124111.
     DOI: 10.1063/5.0137838
   
   with help from (in alphabetical order)
   P. Atkinson, C. Bannwarth, F. Bohle, G. Brandenburg, E. Caldeweyher
   M. Checinski, S. Dohm, S. Ehlert, S. Ehrlich, I. Gerasimov, C. Hölzer
   A. Katbashev, J. Kohn, J. Koopman, C. Lavigne, S. Lehtola, F. März, M. Müller,
   F. Musil, H. Neugebauer, J. Pisarek, C. Plett, P. Pracht, F. Pultar,
   J. Seibert, P. Shushkov, S. Spicher, M. Stahn, M. Steiner, T. Strunk,
   J. Stückrath, T. Rose, and J. Unsleber
   
 * started run on 2025/06/25 at 12:06:47.430     
$$$$$$$$$$$$$$$$$$$$$$$$$$$$$$$$$$$$$$$$$$$$$$$$$$$$$$$$$$$$$$$$$$$$$$$$
 CONSTRAINTS & SCANS: DEBUG SECTION
$$$$$$$$$$$$$$$$$$$$$$$$$$$$$$$$$$$$$$$$$$$$$$$$$$$$$$$$$$$$$$$$$$$$$$$$
   ID    Z sym.   atoms
    1    6 C      1, 2, 4, 5, 7-9, 20
    2    7 N      3, 6, 16
    3    9 F      10-12, 21-23
    4   16 S      13, 17
    5    8 O      14, 15, 18, 19
    6    1 H      24-34
$$$$$$$$$$$$$$$$$$$$$$$$$$$$$$$$$$$$$$$$$$$$$$$$$$$$$$$$$$$$$$$$$$$$$$$$

           -------------------------------------------------
          |                Calculation Setup                |
           -------------------------------------------------

          program call               : C:\Users\nkapa\Downloads\xtb-6.7.1pre-windows-x86_64\xtb-6.7.1\bin\xtb.EXE dft_tmp\mol_281.xyz --gfn2 --parallel 8 --verbose
          coordinate file            : dft_tmp\mol_281.xyz
          xtbhome directory          : C:\Users\nkapa\AppData\Roaming\SPB_Data
          path for xtb               : C:\Users\nkapa\Downloads\xtb-6.7.1pre-windows-x86_64\xtb-6.7.1\share\xtb
          xcontrol input file        : dft_tmp\mol_281.xyz
          omp threads                :                     8


           -------------------------------------------------
          |                 G F N 2 - x T B                 |
           -------------------------------------------------

        Reference                      10.1021/acs.jctc.8b01176
      * Hamiltonian:
        H0-scaling (s, p, d)           1.850000    2.230000    2.230000
        zeta-weighting                 0.500000
      * Dispersion:
        s8                             2.700000
        a1                             0.520000
        a2                             5.000000
        s9                             5.000000
      * Repulsion:
        kExp                           1.500000    1.000000
        rExp                           1.000000
      * Coulomb:
        alpha                          2.000000
        third order                    shell-resolved
        anisotropic                    true
        a3                             3.000000
        a5                             4.000000
        cn-shift                       1.200000
        cn-exp                         4.000000
        max-rad                        5.000000


          ...................................................
          :                      SETUP                      :
          :.................................................:
          :  # basis functions                 115          :
          :  # atomic orbitals                 113          :
          :  # shells                           59          :
          :  # electrons                       136          :
          :  max. iterations                   250          :
          :  Hamiltonian                  GFN2-xTB          :
          :  restarted?                      false          :
          :  GBSA solvation                  false          :
          :  PC potential                    false          :
          :  electronic temp.          300.0000000     K    :
          :  accuracy                    1.0000000          :
          :  -> integral cutoff          0.2500000E+02      :
          :  -> integral neglect         0.1000000E-07      :
          :  -> SCF convergence          0.1000000E-05 Eh   :
          :  -> wf. convergence          0.1000000E-03 e    :
          :  Broyden damping             0.4000000          :
          :  net charge                          0          :
          :  unpaired electrons                  0          :
          ...................................................

 iter      E             dE          RMSdq      gap      omega  full diag
   1    -72.8673380 -0.728673E+02  0.132E+01    0.72       0.0  T
   2    -72.7986711  0.686669E-01  0.103E+01    0.15       1.0  T
   3    -74.0133396 -0.121467E+01  0.721E+00    0.64       1.0  T
   4    -74.3904901 -0.377150E+00  0.484E+00    0.94       1.0  T
   5    -74.8710669 -0.480577E+00  0.375E+00    0.61       1.0  T
   6    -75.9185381 -0.104747E+01  0.158E+00    0.62       1.0  T
   7    -75.9073560  0.111821E-01  0.111E+00    0.49       1.0  T
   8    -75.9114114 -0.405549E-02  0.111E+00    0.66       1.0  T
   9    -75.9332215 -0.218101E-01  0.496E-01    0.53       1.0  T
  10    -75.9399409 -0.671942E-02  0.163E-01    0.49       1.0  T
  11    -75.9402835 -0.342577E-03  0.100E-01    0.48       1.0  T
  12    -75.9403681 -0.845926E-04  0.522E-02    0.48       1.0  T
  13    -75.9403565  0.116456E-04  0.390E-02    0.47       1.0  T
  14    -75.9404119 -0.554202E-04  0.139E-02    0.48       1.2  T
  15    -75.9404130 -0.107636E-05  0.104E-02    0.48       1.7  T
  16    -75.9404171 -0.413406E-05  0.250E-03    0.48       6.8  T
  17    -75.9404172 -0.796092E-07  0.118E-03    0.48      14.5  T
  18    -75.9404172 -0.120769E-07  0.578E-04    0.48      29.7  T
  19    -75.9404172 -0.313980E-08  0.285E-04    0.48      60.2  T

   *** convergence criteria satisfied after 19 iterations ***

         #    Occupation            Energy/Eh            Energy/eV
      -------------------------------------------------------------
         1        2.0000           -1.2893970             -35.0863
       ...           ...                  ...                  ...
        62        2.0000           -0.1700059              -4.6261
        63        2.0000           -0.1624179              -4.4196
        64        2.0000           -0.1512201              -4.1149
        65        2.0000           -0.1353068              -3.6819
        66        2.0000           -0.1217379              -3.3127
        67        2.0000           -0.1004792              -2.7342
        68        1.9998           -0.0835371              -2.2732 (HOMO)
        69        0.0002           -0.0660284              -1.7967 (LUMO)
        70                         -0.0387075              -1.0533
        71                         -0.0257960              -0.7019
        72                         -0.0022524              -0.0613
        73                          0.0479933               1.3060
       ...                                ...                  ...
       113                         86.1193948            2343.4280
      -------------------------------------------------------------
                  HL-Gap            0.0175087 Eh            0.4764 eV
             Fermi-level           -0.0747828 Eh           -2.0349 eV

 SCC (total)                   0 d,  0 h,  0 min,  0.026 sec
 SCC setup                      ...        0 min,  0.000 sec (  0.000%)
 Dispersion                     ...        0 min,  0.000 sec (  0.000%)
 classical contributions        ...        0 min,  0.000 sec (  0.000%)
 integral evaluation            ...        0 min,  0.002 sec (  7.692%)
 iterations                     ...        0 min,  0.021 sec ( 80.770%)
 molecular gradient             ...        0 min,  0.003 sec ( 11.539%)
 printout                       ...        0 min,  0.000 sec (  0.000%)

         :::::::::::::::::::::::::::::::::::::::::::::::::::::
         ::                     SUMMARY                     ::
         :::::::::::::::::::::::::::::::::::::::::::::::::::::
         :: total energy             -56.064320692843 Eh    ::
         :: gradient norm             34.456590242722 Eh/a0 ::
         :: HOMO-LUMO gap              0.476435930475 eV    ::
         ::.................................................::
         :: HOMO orbital eigv.        -2.273160821198 eV    ::
         :: LUMO orbital eigv.        -1.796724890722 eV    ::
         ::.................................................::
         :: SCC energy               -75.940051777709 Eh    ::
         :: -> isotropic ES            0.738266138384 Eh    ::
         :: -> anisotropic ES          0.047167000335 Eh    ::
         :: -> anisotropic XC         -0.124147550133 Eh    ::
         :: -> dispersion             -0.068498403642 Eh    ::
         :: repulsion energy          19.875731084866 Eh    ::
         :: add. restraining           0.000000000000 Eh    ::
         :: total charge               0.000000000004 e     ::
         ::.................................................::
         :: atomisation energy       -17.896666254420 Eh    ::
         :::::::::::::::::::::::::::::::::::::::::::::::::::::

           -------------------------------------------------
          |                Property Printout                |
           -------------------------------------------------

    * Orbital Energies and Occupations

         #    Occupation            Energy/Eh            Energy/eV
      -------------------------------------------------------------
         1        2.0000           -1.2893970             -35.0863
       ...           ...                  ...                  ...
        56        2.0000           -0.3338799              -9.0853
        57        2.0000           -0.3167943              -8.6204
        58        2.0000           -0.2913898              -7.9291
        59        2.0000           -0.2619954              -7.1293
        60        2.0000           -0.2503027              -6.8111
        61        2.0000           -0.2108733              -5.7382
        62        2.0000           -0.1700059              -4.6261
        63        2.0000           -0.1624179              -4.4196
        64        2.0000           -0.1512201              -4.1149
        65        2.0000           -0.1353068              -3.6819
        66        2.0000           -0.1217379              -3.3127
        67        2.0000           -0.1004792              -2.7342
        68        1.9998           -0.0835371              -2.2732 (HOMO)
        69        0.0002           -0.0660284              -1.7967 (LUMO)
        70                         -0.0387075              -1.0533
        71                         -0.0257960              -0.7019
        72                         -0.0022524              -0.0613
        73                          0.0479933               1.3060
        74                          0.0563681               1.5339
        75                          0.0915171               2.4903
        76                          0.1292830               3.5180
        77                          0.1543501               4.2001
        78                          0.1791603               4.8752
        79                          0.2062327               5.6119
       ...                                ...                  ...
       113                         86.1193948            2343.4280
      -------------------------------------------------------------
                  HL-Gap            0.0175087 Eh            0.4764 eV
             Fermi-level           -0.0747828 Eh           -2.0349 eV

     #   Z          covCN         q      C6AA      α(0)
     1   6 C        7.737     0.209    17.250     5.898
     2   6 C        6.427     0.295    16.100     5.698
     3   7 N        6.616    -0.051    22.217     7.001
     4   6 C        7.386    -0.136    23.022     6.814
     5   6 C        5.372     0.119    18.562     6.119
     6   7 N        6.036    -0.159    24.419     7.339
     7   6 C        5.774     0.175    17.724     5.979
     8   6 C        6.155     0.212    17.207     5.891
     9   6 C        7.228    -0.253    25.496     7.171
    10   9 F        3.439     0.381     6.658     3.049
    11   9 F        2.212    -0.574    15.914     4.714
    12   9 F        2.379    -0.122    10.446     3.819
    13  16 S        9.292     0.332   128.246    19.060
    14   8 O        1.838    -0.682    27.158     7.038
    15   8 O        0.860    -0.729    29.508     7.283
    16   7 N        5.211    -0.719    40.945     9.504
    17  16 S        9.431     0.948   108.170    17.505
    18   8 O        3.435    -0.007    14.545     5.151
    19   8 O        2.743    -0.875    32.724     7.726
    20   6 C        5.702    -0.134    22.969     6.806
    21   9 F        0.810    -0.361    13.037     4.265
    22   9 F        1.278    -0.298    12.293     4.143
    23   9 F        2.803     0.371     6.717     3.063
    24   1 H        3.019     0.614     0.227     0.743
    25   1 H        2.468     0.560     0.269     0.810
    26   1 H        2.022    -0.094     5.315     3.599
    27   1 H        1.675     0.599     0.237     0.760
    28   1 H        1.354    -0.369    38.920     9.739
    29   1 H        1.144     0.151     1.378     1.833
    30   1 H        1.886     0.377     0.517     1.122
    31   1 H        0.925    -0.055     4.227     3.215
    32   1 H        1.481    -0.009     3.202     2.793
    33   1 H        1.823     0.584     0.249     0.779
    34   1 H        0.956    -0.300    22.459     7.408

 Mol. C6AA /au·bohr⁶  :      17727.720120
 Mol. C8AA /au·bohr⁸  :     433836.672997
 Mol. α(0) /au        :        193.838030


Wiberg/Mayer (AO) data.
largest (>0.10) Wiberg bond orders for each atom

 ---------------------------------------------------------------------------
     #   Z sym  total        # sym  WBO       # sym  WBO       # sym  WBO
 ---------------------------------------------------------------------------
     1   6 C    3.826 --     9 C    2.626    12 F    0.495    26 H    0.233
                             2 C    0.132
     2   6 C    3.601 --    10 F    1.297     3 N    0.766     9 C    0.497
                            28 H    0.466     1 C    0.132
     3   7 N    3.574 --     4 C    0.798     2 C    0.766     7 C    0.730
                            13 S    0.490    17 S    0.234
     4   6 C    3.459 --    29 H    0.829     3 N    0.798    17 S    0.449
                             5 C    0.328    14 O    0.273    13 S    0.150
     5   6 C    3.874 --    18 O    1.644    17 S    1.173     6 N    0.396
                             4 C    0.328
     6   7 N    3.574 --    17 S    1.230     8 C    0.541    20 C    0.509
                             5 C    0.396     7 C    0.282    16 N    0.188
     7   6 C    3.856 --    16 N    1.022    31 H    0.871     3 N    0.730
                            17 S    0.602     6 N    0.282
     8   6 C    3.613 --    23 F    1.253    32 H    0.682    34 H    0.639
                             6 N    0.541    20 C    0.210
     9   6 C    3.766 --     1 C    2.626     2 C    0.497    11 F    0.109
    10   9 F    2.150 --     2 C    1.297    27 H    0.558
    11   9 F    0.727 --    24 H    0.421     9 C    0.109
    12   9 F    1.350 --    25 H    0.686     1 C    0.495
    13  16 S    5.314 --    15 O    1.565    14 O    1.138    16 N    0.708
                            26 H    0.515     3 N    0.490     4 C    0.150
                            19 O    0.133
    14   8 O    1.946 --    13 S    1.138     4 C    0.273
    15   8 O    1.813 --    13 S    1.565
    16   7 N    2.704 --     7 C    1.022    13 S    0.708    20 C    0.219
                            17 S    0.204     6 N    0.188
    17  16 S    5.982 --     6 N    1.230     5 C    1.173    19 O    0.955
                             7 C    0.602    20 C    0.574     4 C    0.449
                             3 N    0.234    16 N    0.204    18 O    0.118
    18   8 O    2.672 --     5 C    1.644    30 H    0.686    17 S    0.118
    19   8 O    1.623 --    17 S    0.955    13 S    0.133
    20   6 C    3.549 --    21 F    0.726    22 F    0.719    17 S    0.574
                             6 N    0.509    16 N    0.219     8 C    0.210
    21   9 F    0.887 --    20 C    0.726
    22   9 F    1.009 --    20 C    0.719
    23   9 F    2.175 --     8 C    1.253    33 H    0.637
    24   1 H    0.622 --    11 F    0.421
    25   1 H    0.686 --    12 F    0.686
    26   1 H    0.971 --    13 S    0.515     1 C    0.233
    27   1 H    0.641 --    10 F    0.558
    28   1 H    0.862 --     2 C    0.466
    29   1 H    0.977 --     4 C    0.829
    30   1 H    0.858 --    18 O    0.686
    31   1 H    0.997 --     7 C    0.871
    32   1 H    0.977 --     8 C    0.682
    33   1 H    0.659 --    23 F    0.637
    34   1 H    0.909 --     8 C    0.639
 ---------------------------------------------------------------------------

Topologies differ in total number of bonds
Writing topology from bond orders to xtbtopo.mol

molecular dipole:
                 x           y           z       tot (Debye)
 q only:       -1.372       1.395      -1.654
   full:       -1.720       1.334      -1.440       6.632
molecular quadrupole (traceless):
                xx          xy          yy          xz          yz          zz
 q only:       72.104      38.169     -19.521     -31.498       1.460     -52.583
  q+dip:       92.373      42.223     -24.763     -41.275      -1.427     -67.609
   full:       95.228      44.946     -25.247     -41.135      -1.872     -69.982


           -------------------------------------------------
          | TOTAL ENERGY              -56.064320692843 Eh   |
          | GRADIENT NORM              34.456590242722 Eh/α |
          | HOMO-LUMO GAP               0.476435930475 eV   |
           -------------------------------------------------
########################################################################
[WARNING] Runtime exception occurred
-2- restart_readRestart: Dimension missmatch in restart file.
-1- restart_readRestart: Number of electron missmatch in restart file.
########################################################################

------------------------------------------------------------------------
 unit  open   action     filename
  129 false : read       dft_tmp\mol_281.xyz
  129 false : read       dft_tmp\mol_281.xyz
  129 false : read       dft_tmp\mol_281.xyz
  129 false : read       C:\Users\nkapa\Downloads\xtb-6.7.1pre-windows-x86_64\xtb-6.7.1\share\xtb\param_gfn2-xtb.txt
  129 false : read       xtbrestart
  129 false : replaced   charges
  129 false : replaced   wbo
  129 false : replaced   xtbtopo.mol
  129 false : replaced   xtbrestart

------------------------------------------------------------------------
 * finished run on 2025/06/25 at 12:06:47.482     
------------------------------------------------------------------------
 total:
 * wall-time:     0 d,  0 h,  0 min,  0.051 sec
 *  cpu-time:     0 d,  0 h,  0 min,  0.266 sec
 * ratio c/w:     5.208 speedup
 SCF:
 * wall-time:     0 d,  0 h,  0 min,  0.027 sec
 *  cpu-time:     0 d,  0 h,  0 min,  0.250 sec
 * ratio c/w:     9.259 speedup

normal termination of xtb
