      -----------------------------------------------------------      
     |                   =====================                   |     
     |                           x T B                           |     
     |                   =====================                   |     
     |                         S. Grimme                         |     
     |          Mulliken Center for Theoretical Chemistry        |     
     |                    University of Bonn                     |     
      -----------------------------------------------------------      

   * xtb version 6.7.1pre (5071a88) compiled by 'Marcel@Raven' on 2024-07-23

   xtb is free software: you can redistribute it and/or modify it under
   the terms of the GNU Lesser General Public License as published by
   the Free Software Foundation, either version 3 of the License, or
   (at your option) any later version.
   
   xtb is distributed in the hope that it will be useful,
   but WITHOUT ANY WARRANTY; without even the implied warranty of
   MERCHANTABILITY or FITNESS FOR A PARTICULAR PURPOSE.  See the
   GNU Lesser General Public License for more details.
   
   Cite this work as:
   * C. Bannwarth, E. Caldeweyher, S. Ehlert, A. Hansen, P. Pracht,
     J. Seibert, S. Spicher, S. Grimme, WIREs Comput. Mol. Sci., 2020, 11,
     e01493. DOI: 10.1002/wcms.1493
   
   for GFN2-xTB:
   * C. Bannwarth, S. Ehlert and S. Grimme., J. Chem. Theory Comput., 2019,
     15, 1652-1671. DOI: 10.1021/acs.jctc.8b01176
   for GFN1-xTB:
   * S. Grimme, C. Bannwarth, P. Shushkov, J. Chem. Theory Comput., 2017,
     13, 1989-2009. DOI: 10.1021/acs.jctc.7b00118
   for GFN0-xTB:
   * P. Pracht, E. Caldeweyher, S. Ehlert, S. Grimme, ChemRxiv, 2019, preprint.
     DOI: 10.26434/chemrxiv.8326202.v1
   for GFN-FF:
   * S. Spicher and S. Grimme, Angew. Chem. Int. Ed., 2020, 59, 15665-15673.
     DOI: 10.1002/anie.202004239
   
   for ALPB and GBSA implicit solvation:
   * S. Ehlert, M. Stahn, S. Spicher, S. Grimme, J. Chem. Theory Comput.,
     2021, 17, 4250-4261. DOI: 10.1021/acs.jctc.1c00471
   
   for ddCOSMO and CPCM-X implicit solvation:
   * M. Stahn, S. Ehlert, S. Grimme, J. Phys. Chem. A,
     2023, XX, XXXX-XXXX. DOI: 10.1021/acs.jpca.3c04382
   
   for DFT-D4:
   * E. Caldeweyher, C. Bannwarth and S. Grimme, J. Chem. Phys., 2017,
     147, 034112. DOI: 10.1063/1.4993215
   * E. Caldeweyher, S. Ehlert, A. Hansen, H. Neugebauer, S. Spicher,
     C. Bannwarth and S. Grimme, J. Chem. Phys., 2019, 150, 154122.
     DOI: 10.1063/1.5090222
   * E. Caldeweyher, J.-M. Mewes, S. Ehlert and S. Grimme, Phys. Chem. Chem. Phys.
     2020, 22, 8499-8512. DOI: 10.1039/D0CP00502A
   
   for sTDA-xTB:
   * S. Grimme and C. Bannwarth, J. Chem. Phys., 2016, 145, 054103.
     DOI: 10.1063/1.4959605
   
   in the mass-spec context:
   * V. Asgeirsson, C. Bauer and S. Grimme, Chem. Sci., 2017, 8, 4879.
     DOI: 10.1039/c7sc00601b
   * J. Koopman and S. Grimme, ACS Omega 2019, 4, 12, 15120-15133.
     DOI: 10.1021/acsomega.9b02011
   
   for metadynamics refer to:
   * S. Grimme, J. Chem. Theory Comput., 2019, 155, 2847-2862
     DOI: 10.1021/acs.jctc.9b00143
   
   for SPH calculations refer to:
   * S. Spicher and S. Grimme, J. Chem. Theory Comput., 2021, 17, 1701-1714
     DOI: 10.1021/acs.jctc.0c01306
   
   for ONIOM refer to:
   * C. Plett, A. Katbashev, S. Ehlert, S. Grimme, M. Bursch,
     Phys. Chem. Chem. Phys., 2023, 25, 17860-17868. DOI: 10.1039/D3CP02178E
   
   for DIPRO refer to:
   * J. Kohn, N. Gildemeister, S. Grimme, D. Fazzi, A. Hansen,
     J. Chem. Phys., 2023, just accepted.
   
   for PTB refer to:
   * S. Grimme, M. Mueller, A. Hansen, J. Chem. Phys., 2023, 158, 124111.
     DOI: 10.1063/5.0137838
   
   with help from (in alphabetical order)
   P. Atkinson, C. Bannwarth, F. Bohle, G. Brandenburg, E. Caldeweyher
   M. Checinski, S. Dohm, S. Ehlert, S. Ehrlich, I. Gerasimov, C. Hölzer
   A. Katbashev, J. Kohn, J. Koopman, C. Lavigne, S. Lehtola, F. März, M. Müller,
   F. Musil, H. Neugebauer, J. Pisarek, C. Plett, P. Pracht, F. Pultar,
   J. Seibert, P. Shushkov, S. Spicher, M. Stahn, M. Steiner, T. Strunk,
   J. Stückrath, T. Rose, and J. Unsleber
   
 * started run on 2025/06/25 at 12:06:34.247     
$$$$$$$$$$$$$$$$$$$$$$$$$$$$$$$$$$$$$$$$$$$$$$$$$$$$$$$$$$$$$$$$$$$$$$$$
 CONSTRAINTS & SCANS: DEBUG SECTION
$$$$$$$$$$$$$$$$$$$$$$$$$$$$$$$$$$$$$$$$$$$$$$$$$$$$$$$$$$$$$$$$$$$$$$$$
   ID    Z sym.   atoms
    1   11 Na     1
    2    8 O      2, 4-6
    3   17 Cl     3
$$$$$$$$$$$$$$$$$$$$$$$$$$$$$$$$$$$$$$$$$$$$$$$$$$$$$$$$$$$$$$$$$$$$$$$$

           -------------------------------------------------
          |                Calculation Setup                |
           -------------------------------------------------

          program call               : C:\Users\nkapa\Downloads\xtb-6.7.1pre-windows-x86_64\xtb-6.7.1\bin\xtb.EXE dft_tmp\mol_176.xyz --gfn2 --parallel 8 --verbose
          coordinate file            : dft_tmp\mol_176.xyz
          xtbhome directory          : C:\Users\nkapa\AppData\Roaming\SPB_Data
          path for xtb               : C:\Users\nkapa\Downloads\xtb-6.7.1pre-windows-x86_64\xtb-6.7.1\share\xtb
          xcontrol input file        : dft_tmp\mol_176.xyz
          omp threads                :                     8


           -------------------------------------------------
          |                 G F N 2 - x T B                 |
           -------------------------------------------------

        Reference                      10.1021/acs.jctc.8b01176
      * Hamiltonian:
        H0-scaling (s, p, d)           1.850000    2.230000    2.230000
        zeta-weighting                 0.500000
      * Dispersion:
        s8                             2.700000
        a1                             0.520000
        a2                             5.000000
        s9                             5.000000
      * Repulsion:
        kExp                           1.500000    1.000000
        rExp                           1.000000
      * Coulomb:
        alpha                          2.000000
        third order                    shell-resolved
        anisotropic                    true
        a3                             3.000000
        a5                             4.000000
        cn-shift                       1.200000
        cn-exp                         4.000000
        max-rad                        5.000000


          ...................................................
          :                      SETUP                      :
          :.................................................:
          :  # basis functions                  30          :
          :  # atomic orbitals                  29          :
          :  # shells                           13          :
          :  # electrons                        32          :
          :  max. iterations                   250          :
          :  Hamiltonian                  GFN2-xTB          :
          :  restarted?                      false          :
          :  GBSA solvation                  false          :
          :  PC potential                    false          :
          :  electronic temp.          300.0000000     K    :
          :  accuracy                    1.0000000          :
          :  -> integral cutoff          0.2500000E+02      :
          :  -> integral neglect         0.1000000E-07      :
          :  -> SCF convergence          0.1000000E-05 Eh   :
          :  -> wf. convergence          0.1000000E-03 e    :
          :  Broyden damping             0.4000000          :
          :  net charge                          0          :
          :  unpaired electrons                  0          :
          ...................................................

 iter      E             dE          RMSdq      gap      omega  full diag
   1    -20.1133912 -0.201134E+02  0.133E+01    2.80       0.0  T
   2    -20.6486990 -0.535308E+00  0.404E+00    2.51       1.0  T
   3    -20.6570088 -0.830978E-02  0.222E+00    2.77       1.0  T
   4    -20.6574918 -0.483031E-03  0.886E-01    2.71       1.0  T
   5    -20.6594962 -0.200442E-02  0.236E-01    2.81       1.0  T
   6    -20.6595199 -0.237227E-04  0.658E-02    2.81       1.0  T
   7    -20.6595299 -0.992226E-05  0.294E-02    2.81       1.4  T
   8    -20.6595313 -0.143515E-05  0.124E-02    2.81       3.3  T
   9    -20.6595315 -0.233448E-06  0.279E-03    2.81      14.6  T
  10    -20.6595315 -0.722803E-08  0.206E-03    2.81      19.9  T
  11    -20.6595315 -0.605740E-08  0.898E-04    2.81      45.5  T
  12    -20.6595315 -0.162717E-08  0.404E-04    2.81     101.2  T

   *** convergence criteria satisfied after 12 iterations ***

         #    Occupation            Energy/Eh            Energy/eV
      -------------------------------------------------------------
         1        2.0000           -1.1685494             -31.7978
       ...           ...                  ...                  ...
        10        2.0000           -0.5658580             -15.3978
        11        2.0000           -0.5636248             -15.3370
        12        2.0000           -0.5620693             -15.2947
        13        2.0000           -0.5531541             -15.0521
        14        2.0000           -0.5489936             -14.9389
        15        2.0000           -0.5432103             -14.7815
        16        2.0000           -0.5424099             -14.7597 (HOMO)
        17                         -0.4390605             -11.9474 (LUMO)
        18                         -0.3940433             -10.7225
        19                         -0.3797188             -10.3327
        20                         -0.3754959             -10.2178
        21                         -0.1601571              -4.3581
       ...                                ...                  ...
        29                          0.0066417               0.1807
      -------------------------------------------------------------
                  HL-Gap            0.1033494 Eh            2.8123 eV
             Fermi-level           -0.4907352 Eh          -13.3536 eV

 SCC (total)                   0 d,  0 h,  0 min,  0.004 sec
 SCC setup                      ...        0 min,  0.001 sec ( 24.999%)
 Dispersion                     ...        0 min,  0.000 sec (  0.000%)
 classical contributions        ...        0 min,  0.000 sec (  0.000%)
 integral evaluation            ...        0 min,  0.000 sec (  0.000%)
 iterations                     ...        0 min,  0.002 sec ( 49.997%)
 molecular gradient             ...        0 min,  0.001 sec ( 25.004%)
 printout                       ...        0 min,  0.000 sec (  0.000%)

         :::::::::::::::::::::::::::::::::::::::::::::::::::::
         ::                     SUMMARY                     ::
         :::::::::::::::::::::::::::::::::::::::::::::::::::::
         :: total energy            1723.762120091345 Eh    ::
         :: gradient norm          48608.467076897141 Eh/a0 ::
         :: HOMO-LUMO gap              2.812280948997 eV    ::
         ::.................................................::
         :: HOMO orbital eigv.       -14.759725636083 eV    ::
         :: LUMO orbital eigv.       -11.947444687086 eV    ::
         ::.................................................::
         :: SCC energy               -20.659531031322 Eh    ::
         :: -> isotropic ES            0.159443472283 Eh    ::
         :: -> anisotropic ES          0.000178737579 Eh    ::
         :: -> anisotropic XC         -0.015064764060 Eh    ::
         :: -> dispersion             -0.003757626222 Eh    ::
         :: repulsion energy        1744.421651122667 Eh    ::
         :: add. restraining           0.000000000000 Eh    ::
         :: total charge               0.000000000000 e     ::
         ::.................................................::
         :: atomisation energy     -1743.473099044252 Eh    ::
         :::::::::::::::::::::::::::::::::::::::::::::::::::::

           -------------------------------------------------
          |                Property Printout                |
           -------------------------------------------------

    * Orbital Energies and Occupations

         #    Occupation            Energy/Eh            Energy/eV
      -------------------------------------------------------------
         1        2.0000           -1.1685494             -31.7978
       ...           ...                  ...                  ...
         4        2.0000           -0.7771159             -21.1464
         5        2.0000           -0.7291370             -19.8408
         6        2.0000           -0.6986069             -19.0101
         7        2.0000           -0.6951707             -18.9166
         8        2.0000           -0.6919036             -18.8277
         9        2.0000           -0.5691714             -15.4879
        10        2.0000           -0.5658580             -15.3978
        11        2.0000           -0.5636248             -15.3370
        12        2.0000           -0.5620693             -15.2947
        13        2.0000           -0.5531541             -15.0521
        14        2.0000           -0.5489936             -14.9389
        15        2.0000           -0.5432103             -14.7815
        16        2.0000           -0.5424099             -14.7597 (HOMO)
        17                         -0.4390605             -11.9474 (LUMO)
        18                         -0.3940433             -10.7225
        19                         -0.3797188             -10.3327
        20                         -0.3754959             -10.2178
        21                         -0.1601571              -4.3581
        22                         -0.1600787              -4.3560
        23                         -0.1490397              -4.0556
        24                         -0.0739685              -2.0128
        25                         -0.0344976              -0.9387
        26                         -0.0220991              -0.6013
        27                         -0.0112664              -0.3066
       ...                                ...                  ...
        29                          0.0066417               0.1807
      -------------------------------------------------------------
                  HL-Gap            0.1033494 Eh            2.8123 eV
             Fermi-level           -0.4907352 Eh          -13.3536 eV

     #   Z          covCN         q      C6AA      α(0)
     1  11 Na       3.315     0.676    67.675    26.605
     2   8 O        1.567    -0.364    20.213     6.066
     3  17 Cl       4.347     0.747    79.544    13.645
     4   8 O        1.585    -0.346    19.874     6.016
     5   8 O        1.546    -0.371    20.361     6.088
     6   8 O        1.587    -0.343    19.807     6.006

 Mol. C6AA /au·bohr⁶  :       1056.124861
 Mol. C8AA /au·bohr⁸  :      43896.645718
 Mol. α(0) /au        :         64.425362


Wiberg/Mayer (AO) data.
largest (>0.10) Wiberg bond orders for each atom

 ---------------------------------------------------------------------------
     #   Z sym  total        # sym  WBO       # sym  WBO       # sym  WBO
 ---------------------------------------------------------------------------
     1  11 Na   0.622 --     5 O    0.157     2 O    0.151     4 O    0.141
                             6 O    0.139
     2   8 O    1.408 --     3 Cl   0.838     1 Na   0.151     6 O    0.140
                             4 O    0.140     5 O    0.139
     3  17 Cl   3.589 --     6 O    0.989     4 O    0.967     2 O    0.838
                             5 O    0.761
     4   8 O    1.529 --     3 Cl   0.967     6 O    0.142     1 Na   0.141
                             2 O    0.140     5 O    0.139
     5   8 O    1.336 --     3 Cl   0.761     1 Na   0.157     6 O    0.140
                             4 O    0.139     2 O    0.139
     6   8 O    1.549 --     3 Cl   0.989     4 O    0.142     2 O    0.140
                             5 O    0.140     1 Na   0.139
 ---------------------------------------------------------------------------

Topologies differ in total number of bonds
Writing topology from bond orders to xtbtopo.mol

molecular dipole:
                 x           y           z       tot (Debye)
 q only:        0.125      -0.075      -0.016
   full:        0.109      -0.056      -0.011       0.314
molecular quadrupole (traceless):
                xx          xy          yy          xz          yz          zz
 q only:        0.165       0.094      -0.481      -0.218      -0.619       0.315
  q+dip:        0.127       0.055      -0.356      -0.173      -0.458       0.230
   full:        0.109       0.053      -0.324      -0.163      -0.420       0.215


           -------------------------------------------------
          | TOTAL ENERGY             1723.762120091345 Eh   |
          | GRADIENT NORM           48608.467076897141 Eh/α |
          | HOMO-LUMO GAP               2.812280948997 eV   |
           -------------------------------------------------
########################################################################
[WARNING] Runtime exception occurred
-2- restart_readRestart: Dimension missmatch in restart file.
-1- restart_readRestart: Number of electron missmatch in restart file.
########################################################################

------------------------------------------------------------------------
 unit  open   action     filename
  129 false : read       dft_tmp\mol_176.xyz
  129 false : read       dft_tmp\mol_176.xyz
  129 false : read       dft_tmp\mol_176.xyz
  129 false : read       C:\Users\nkapa\Downloads\xtb-6.7.1pre-windows-x86_64\xtb-6.7.1\share\xtb\param_gfn2-xtb.txt
  129 false : read       xtbrestart
  129 false : replaced   charges
  129 false : replaced   wbo
  129 false : replaced   xtbtopo.mol
  129 false : replaced   xtbrestart

------------------------------------------------------------------------
 * finished run on 2025/06/25 at 12:06:34.272     
------------------------------------------------------------------------
 total:
 * wall-time:     0 d,  0 h,  0 min,  0.024 sec
 *  cpu-time:     0 d,  0 h,  0 min,  0.125 sec
 * ratio c/w:     5.208 speedup
 SCF:
 * wall-time:     0 d,  0 h,  0 min,  0.004 sec
 *  cpu-time:     0 d,  0 h,  0 min,  0.125 sec
 * ratio c/w:    31.250 speedup

normal termination of xtb
