28

C -4.369853 -0.999086 0.141695
C -3.196895 -1.651733 -0.246334
C -2.025879 -0.919071 -0.464012
C -2.017268 0.476149 -0.279224
C -3.206684 1.124694 0.087788
C -4.375711 0.388615 0.304808
N -0.833950 1.255575 -0.524793
C 0.508071 0.784778 -0.311917
C 1.549018 1.286897 -1.106376
C 2.865262 0.863371 -0.900125
C 3.159969 -0.052813 0.117971
C 2.126289 -0.545015 0.925404
C 0.809785 -0.122244 0.719556
S 4.815499 -0.595370 0.369835
O 5.775011 0.491410 -0.026395
O 5.030150 -0.923323 1.820737
O 5.102967 -1.962839 -0.561692
Na 0.000000 0.000000 0.000000
H -5.275774 -1.567461 0.308180
H -3.196829 -2.725025 -0.386172
H -1.134782 -1.438273 -0.791956
H -3.223818 2.199931 0.214423
H -5.286786 0.894576 0.597108
H -0.957650 2.230106 -0.882890
H 1.337012 1.998994 -1.894078
H 3.652620 1.250341 -1.534341
H 2.338729 -1.251517 1.717654
H 0.031498 -0.491668 1.374523
