      -----------------------------------------------------------      
     |                   =====================                   |     
     |                           x T B                           |     
     |                   =====================                   |     
     |                         S. Grimme                         |     
     |          Mulliken Center for Theoretical Chemistry        |     
     |                    University of Bonn                     |     
      -----------------------------------------------------------      

   * xtb version 6.7.1pre (5071a88) compiled by 'Marcel@Raven' on 2024-07-23

   xtb is free software: you can redistribute it and/or modify it under
   the terms of the GNU Lesser General Public License as published by
   the Free Software Foundation, either version 3 of the License, or
   (at your option) any later version.
   
   xtb is distributed in the hope that it will be useful,
   but WITHOUT ANY WARRANTY; without even the implied warranty of
   MERCHANTABILITY or FITNESS FOR A PARTICULAR PURPOSE.  See the
   GNU Lesser General Public License for more details.
   
   Cite this work as:
   * C. Bannwarth, E. Caldeweyher, S. Ehlert, A. Hansen, P. Pracht,
     J. Seibert, S. Spicher, S. Grimme, WIREs Comput. Mol. Sci., 2020, 11,
     e01493. DOI: 10.1002/wcms.1493
   
   for GFN2-xTB:
   * C. Bannwarth, S. Ehlert and S. Grimme., J. Chem. Theory Comput., 2019,
     15, 1652-1671. DOI: 10.1021/acs.jctc.8b01176
   for GFN1-xTB:
   * S. Grimme, C. Bannwarth, P. Shushkov, J. Chem. Theory Comput., 2017,
     13, 1989-2009. DOI: 10.1021/acs.jctc.7b00118
   for GFN0-xTB:
   * P. Pracht, E. Caldeweyher, S. Ehlert, S. Grimme, ChemRxiv, 2019, preprint.
     DOI: 10.26434/chemrxiv.8326202.v1
   for GFN-FF:
   * S. Spicher and S. Grimme, Angew. Chem. Int. Ed., 2020, 59, 15665-15673.
     DOI: 10.1002/anie.202004239
   
   for ALPB and GBSA implicit solvation:
   * S. Ehlert, M. Stahn, S. Spicher, S. Grimme, J. Chem. Theory Comput.,
     2021, 17, 4250-4261. DOI: 10.1021/acs.jctc.1c00471
   
   for ddCOSMO and CPCM-X implicit solvation:
   * M. Stahn, S. Ehlert, S. Grimme, J. Phys. Chem. A,
     2023, XX, XXXX-XXXX. DOI: 10.1021/acs.jpca.3c04382
   
   for DFT-D4:
   * E. Caldeweyher, C. Bannwarth and S. Grimme, J. Chem. Phys., 2017,
     147, 034112. DOI: 10.1063/1.4993215
   * E. Caldeweyher, S. Ehlert, A. Hansen, H. Neugebauer, S. Spicher,
     C. Bannwarth and S. Grimme, J. Chem. Phys., 2019, 150, 154122.
     DOI: 10.1063/1.5090222
   * E. Caldeweyher, J.-M. Mewes, S. Ehlert and S. Grimme, Phys. Chem. Chem. Phys.
     2020, 22, 8499-8512. DOI: 10.1039/D0CP00502A
   
   for sTDA-xTB:
   * S. Grimme and C. Bannwarth, J. Chem. Phys., 2016, 145, 054103.
     DOI: 10.1063/1.4959605
   
   in the mass-spec context:
   * V. Asgeirsson, C. Bauer and S. Grimme, Chem. Sci., 2017, 8, 4879.
     DOI: 10.1039/c7sc00601b
   * J. Koopman and S. Grimme, ACS Omega 2019, 4, 12, 15120-15133.
     DOI: 10.1021/acsomega.9b02011
   
   for metadynamics refer to:
   * S. Grimme, J. Chem. Theory Comput., 2019, 155, 2847-2862
     DOI: 10.1021/acs.jctc.9b00143
   
   for SPH calculations refer to:
   * S. Spicher and S. Grimme, J. Chem. Theory Comput., 2021, 17, 1701-1714
     DOI: 10.1021/acs.jctc.0c01306
   
   for ONIOM refer to:
   * C. Plett, A. Katbashev, S. Ehlert, S. Grimme, M. Bursch,
     Phys. Chem. Chem. Phys., 2023, 25, 17860-17868. DOI: 10.1039/D3CP02178E
   
   for DIPRO refer to:
   * J. Kohn, N. Gildemeister, S. Grimme, D. Fazzi, A. Hansen,
     J. Chem. Phys., 2023, just accepted.
   
   for PTB refer to:
   * S. Grimme, M. Mueller, A. Hansen, J. Chem. Phys., 2023, 158, 124111.
     DOI: 10.1063/5.0137838
   
   with help from (in alphabetical order)
   P. Atkinson, C. Bannwarth, F. Bohle, G. Brandenburg, E. Caldeweyher
   M. Checinski, S. Dohm, S. Ehlert, S. Ehrlich, I. Gerasimov, C. Hölzer
   A. Katbashev, J. Kohn, J. Koopman, C. Lavigne, S. Lehtola, F. März, M. Müller,
   F. Musil, H. Neugebauer, J. Pisarek, C. Plett, P. Pracht, F. Pultar,
   J. Seibert, P. Shushkov, S. Spicher, M. Stahn, M. Steiner, T. Strunk,
   J. Stückrath, T. Rose, and J. Unsleber
   
 * started run on 2025/06/25 at 12:06:51.773     
$$$$$$$$$$$$$$$$$$$$$$$$$$$$$$$$$$$$$$$$$$$$$$$$$$$$$$$$$$$$$$$$$$$$$$$$
 CONSTRAINTS & SCANS: DEBUG SECTION
$$$$$$$$$$$$$$$$$$$$$$$$$$$$$$$$$$$$$$$$$$$$$$$$$$$$$$$$$$$$$$$$$$$$$$$$
   ID    Z sym.   atoms
    1    6 C      1-5
    2    7 N      6
    3    1 H      7-15
$$$$$$$$$$$$$$$$$$$$$$$$$$$$$$$$$$$$$$$$$$$$$$$$$$$$$$$$$$$$$$$$$$$$$$$$

           -------------------------------------------------
          |                Calculation Setup                |
           -------------------------------------------------

          program call               : C:\Users\nkapa\Downloads\xtb-6.7.1pre-windows-x86_64\xtb-6.7.1\bin\xtb.EXE dft_tmp\mol_314.xyz --gfn2 --parallel 8 --verbose
          coordinate file            : dft_tmp\mol_314.xyz
          xtbhome directory          : C:\Users\nkapa\AppData\Roaming\SPB_Data
          path for xtb               : C:\Users\nkapa\Downloads\xtb-6.7.1pre-windows-x86_64\xtb-6.7.1\share\xtb
          xcontrol input file        : dft_tmp\mol_314.xyz
          omp threads                :                     8


           -------------------------------------------------
          |                 G F N 2 - x T B                 |
           -------------------------------------------------

        Reference                      10.1021/acs.jctc.8b01176
      * Hamiltonian:
        H0-scaling (s, p, d)           1.850000    2.230000    2.230000
        zeta-weighting                 0.500000
      * Dispersion:
        s8                             2.700000
        a1                             0.520000
        a2                             5.000000
        s9                             5.000000
      * Repulsion:
        kExp                           1.500000    1.000000
        rExp                           1.000000
      * Coulomb:
        alpha                          2.000000
        third order                    shell-resolved
        anisotropic                    true
        a3                             3.000000
        a5                             4.000000
        cn-shift                       1.200000
        cn-exp                         4.000000
        max-rad                        5.000000


          ...................................................
          :                      SETUP                      :
          :.................................................:
          :  # basis functions                  33          :
          :  # atomic orbitals                  33          :
          :  # shells                           21          :
          :  # electrons                        34          :
          :  max. iterations                   250          :
          :  Hamiltonian                  GFN2-xTB          :
          :  restarted?                      false          :
          :  GBSA solvation                  false          :
          :  PC potential                    false          :
          :  electronic temp.          300.0000000     K    :
          :  accuracy                    1.0000000          :
          :  -> integral cutoff          0.2500000E+02      :
          :  -> integral neglect         0.1000000E-07      :
          :  -> SCF convergence          0.1000000E-05 Eh   :
          :  -> wf. convergence          0.1000000E-03 e    :
          :  Broyden damping             0.4000000          :
          :  net charge                          0          :
          :  unpaired electrons                  0          :
          ...................................................

 iter      E             dE          RMSdq      gap      omega  full diag
   1    -18.4301800 -0.184302E+02  0.416E+00    6.38       0.0  T
   2    -18.4488883 -0.187083E-01  0.256E+00    6.39       1.0  T
   3    -18.4321310  0.167573E-01  0.166E+00    5.63       1.0  T
   4    -18.4574265 -0.252956E-01  0.535E-01    5.81       1.0  T
   5    -18.4595119 -0.208542E-02  0.149E-01    5.75       1.0  T
   6    -18.4595906 -0.786654E-04  0.357E-02    5.75       1.0  T
   7    -18.4595924 -0.175897E-05  0.139E-02    5.75       1.9  T
   8    -18.4595926 -0.210731E-06  0.157E-03    5.76      16.5  T
   9    -18.4595926 -0.718524E-08  0.747E-04    5.76      34.6  T
  10    -18.4595926 -0.559748E-09  0.199E-04    5.76     129.6  T

   *** convergence criteria satisfied after 10 iterations ***

         #    Occupation            Energy/Eh            Energy/eV
      -------------------------------------------------------------
         1        2.0000           -0.6486573             -17.6509
       ...           ...                  ...                  ...
        11        2.0000           -0.4743549             -12.9079
        12        2.0000           -0.4708775             -12.8132
        13        2.0000           -0.4596604             -12.5080
        14        2.0000           -0.4522673             -12.3068
        15        2.0000           -0.4421455             -12.0314
        16        2.0000           -0.4389978             -11.9457
        17        2.0000           -0.4230403             -11.5115 (HOMO)
        18                         -0.2115389              -5.7563 (LUMO)
        19                         -0.2078973              -5.6572
        20                          0.0591828               1.6104
        21                          0.0723236               1.9680
        22                          0.0864398               2.3521
       ...                                ...                  ...
        33                          1.0550680              28.7099
      -------------------------------------------------------------
                  HL-Gap            0.2115013 Eh            5.7552 eV
             Fermi-level           -0.3172896 Eh           -8.6339 eV

 SCC (total)                   0 d,  0 h,  0 min,  0.004 sec
 SCC setup                      ...        0 min,  0.000 sec (  0.000%)
 Dispersion                     ...        0 min,  0.000 sec (  0.000%)
 classical contributions        ...        0 min,  0.000 sec (  0.000%)
 integral evaluation            ...        0 min,  0.000 sec (  0.000%)
 iterations                     ...        0 min,  0.003 sec ( 74.997%)
 molecular gradient             ...        0 min,  0.001 sec ( 25.003%)
 printout                       ...        0 min,  0.000 sec (  0.000%)

         :::::::::::::::::::::::::::::::::::::::::::::::::::::
         ::                     SUMMARY                     ::
         :::::::::::::::::::::::::::::::::::::::::::::::::::::
         :: total energy             -18.177307197498 Eh    ::
         :: gradient norm              0.056427810763 Eh/a0 ::
         :: HOMO-LUMO gap              5.755244471062 eV    ::
         ::.................................................::
         :: HOMO orbital eigv.       -11.511511322242 eV    ::
         :: LUMO orbital eigv.        -5.756266851180 eV    ::
         ::.................................................::
         :: SCC energy               -18.459578147860 Eh    ::
         :: -> isotropic ES            0.010168877633 Eh    ::
         :: -> anisotropic ES          0.004598967497 Eh    ::
         :: -> anisotropic XC          0.025495872131 Eh    ::
         :: -> dispersion             -0.008054557456 Eh    ::
         :: repulsion energy           0.282270950362 Eh    ::
         :: add. restraining           0.000000000000 Eh    ::
         :: total charge              -0.000000000000 e     ::
         ::.................................................::
         :: atomisation energy         3.990888579310 Eh    ::
         :::::::::::::::::::::::::::::::::::::::::::::::::::::

           -------------------------------------------------
          |                Property Printout                |
           -------------------------------------------------

    * Orbital Energies and Occupations

         #    Occupation            Energy/Eh            Energy/eV
      -------------------------------------------------------------
         1        2.0000           -0.6486573             -17.6509
       ...           ...                  ...                  ...
         5        2.0000           -0.5703666             -15.5205
         6        2.0000           -0.5484845             -14.9250
         7        2.0000           -0.5263773             -14.3235
         8        2.0000           -0.5200413             -14.1510
         9        2.0000           -0.5110521             -13.9064
        10        2.0000           -0.4880652             -13.2809
        11        2.0000           -0.4743549             -12.9079
        12        2.0000           -0.4708775             -12.8132
        13        2.0000           -0.4596604             -12.5080
        14        2.0000           -0.4522673             -12.3068
        15        2.0000           -0.4421455             -12.0314
        16        2.0000           -0.4389978             -11.9457
        17        2.0000           -0.4230403             -11.5115 (HOMO)
        18                         -0.2115389              -5.7563 (LUMO)
        19                         -0.2078973              -5.6572
        20                          0.0591828               1.6104
        21                          0.0723236               1.9680
        22                          0.0864398               2.3521
        23                          0.1045066               2.8438
        24                          0.1152513               3.1361
        25                          0.1225342               3.3343
        26                          0.1406162               3.8264
        27                          0.1485575               4.0425
        28                          0.1868281               5.0839
       ...                                ...                  ...
        33                          1.0550680              28.7099
      -------------------------------------------------------------
                  HL-Gap            0.2115013 Eh            5.7552 eV
             Fermi-level           -0.3172896 Eh           -8.6339 eV

     #   Z          covCN         q      C6AA      α(0)
     1   6 C        3.742    -0.098    22.452     6.760
     2   6 C        3.794    -0.050    21.470     6.598
     3   6 C        3.799    -0.046    21.408     6.588
     4   6 C        3.798    -0.049    21.460     6.596
     5   6 C        1.894     0.112    28.357     8.600
     6   7 N        0.911    -0.237    26.191     7.402
     7   1 H        0.921     0.033     2.548     2.496
     8   1 H        0.922     0.036     2.502     2.474
     9   1 H        0.921     0.035     2.519     2.482
    10   1 H        0.921     0.036     2.506     2.476
    11   1 H        0.921     0.029     2.595     2.519
    12   1 H        0.921     0.039     2.469     2.457
    13   1 H        0.921     0.036     2.509     2.477
    14   1 H        0.922     0.062     2.173     2.305
    15   1 H        0.921     0.063     2.164     2.301

 Mol. C6AA /au·bohr⁶  :       1854.554073
 Mol. C8AA /au·bohr⁸  :      40581.864240
 Mol. α(0) /au        :         64.532285


Wiberg/Mayer (AO) data.
largest (>0.10) Wiberg bond orders for each atom

 ---------------------------------------------------------------------------
     #   Z sym  total        # sym  WBO       # sym  WBO       # sym  WBO
 ---------------------------------------------------------------------------
     1   6 C    3.997 --     2 C    1.020     9 H    0.987     7 H    0.987
                             8 H    0.987
     2   6 C    3.997 --     1 C    1.020     3 C    1.009    11 H    0.977
                            10 H    0.977
     3   6 C    3.994 --     2 C    1.009     4 C    0.983    12 H    0.977
                            13 H    0.975
     4   6 C    3.996 --     5 C    1.043     3 C    0.983    15 H    0.948
                            14 H    0.947
     5   6 C    3.938 --     6 N    2.855     4 C    1.043
     6   7 N    3.007 --     5 C    2.855
     7   1 H    0.999 --     1 C    0.987
     8   1 H    0.998 --     1 C    0.987
     9   1 H    0.999 --     1 C    0.987
    10   1 H    0.999 --     2 C    0.977
    11   1 H    0.999 --     2 C    0.977
    12   1 H    0.999 --     3 C    0.977
    13   1 H    0.999 --     3 C    0.975
    14   1 H    0.996 --     4 C    0.947
    15   1 H    0.996 --     4 C    0.948
 ---------------------------------------------------------------------------

Topologies differ in total number of bonds
Writing topology from bond orders to xtbtopo.mol

molecular dipole:
                 x           y           z       tot (Debye)
 q only:       -0.572       0.802       0.280
   full:       -0.754       1.233       0.407       3.816
molecular quadrupole (traceless):
                xx          xy          yy          xz          yz          zz
 q only:       -2.673       6.263       0.216       2.143      -1.310       2.457
  q+dip:       -5.360       8.855       1.429       3.843      -2.187       3.931
   full:       -4.380      10.070      -0.040       3.872      -2.649       4.420


           -------------------------------------------------
          | TOTAL ENERGY              -18.177307197498 Eh   |
          | GRADIENT NORM               0.056427810763 Eh/α |
          | HOMO-LUMO GAP               5.755244471062 eV   |
           -------------------------------------------------
########################################################################
[WARNING] Runtime exception occurred
-2- restart_readRestart: Dimension missmatch in restart file.
-1- restart_readRestart: Number of electron missmatch in restart file.
########################################################################

------------------------------------------------------------------------
 unit  open   action     filename
  129 false : read       dft_tmp\mol_314.xyz
  129 false : read       dft_tmp\mol_314.xyz
  129 false : read       dft_tmp\mol_314.xyz
  129 false : read       C:\Users\nkapa\Downloads\xtb-6.7.1pre-windows-x86_64\xtb-6.7.1\share\xtb\param_gfn2-xtb.txt
  129 false : read       xtbrestart
  129 false : replaced   charges
  129 false : replaced   wbo
  129 false : replaced   xtbtopo.mol
  129 false : replaced   xtbrestart

------------------------------------------------------------------------
 * finished run on 2025/06/25 at 12:06:51.798     
------------------------------------------------------------------------
 total:
 * wall-time:     0 d,  0 h,  0 min,  0.024 sec
 *  cpu-time:     0 d,  0 h,  0 min,  0.047 sec
 * ratio c/w:     1.953 speedup
 SCF:
 * wall-time:     0 d,  0 h,  0 min,  0.004 sec
 *  cpu-time:     0 d,  0 h,  0 min,  0.000 sec
 * ratio c/w:     0.000 speedup

normal termination of xtb
