      -----------------------------------------------------------      
     |                   =====================                   |     
     |                           x T B                           |     
     |                   =====================                   |     
     |                         S. Grimme                         |     
     |          Mulliken Center for Theoretical Chemistry        |     
     |                    University of Bonn                     |     
      -----------------------------------------------------------      

   * xtb version 6.7.1pre (5071a88) compiled by 'Marcel@Raven' on 2024-07-23

   xtb is free software: you can redistribute it and/or modify it under
   the terms of the GNU Lesser General Public License as published by
   the Free Software Foundation, either version 3 of the License, or
   (at your option) any later version.
   
   xtb is distributed in the hope that it will be useful,
   but WITHOUT ANY WARRANTY; without even the implied warranty of
   MERCHANTABILITY or FITNESS FOR A PARTICULAR PURPOSE.  See the
   GNU Lesser General Public License for more details.
   
   Cite this work as:
   * C. Bannwarth, E. Caldeweyher, S. Ehlert, A. Hansen, P. Pracht,
     J. Seibert, S. Spicher, S. Grimme, WIREs Comput. Mol. Sci., 2020, 11,
     e01493. DOI: 10.1002/wcms.1493
   
   for GFN2-xTB:
   * C. Bannwarth, S. Ehlert and S. Grimme., J. Chem. Theory Comput., 2019,
     15, 1652-1671. DOI: 10.1021/acs.jctc.8b01176
   for GFN1-xTB:
   * S. Grimme, C. Bannwarth, P. Shushkov, J. Chem. Theory Comput., 2017,
     13, 1989-2009. DOI: 10.1021/acs.jctc.7b00118
   for GFN0-xTB:
   * P. Pracht, E. Caldeweyher, S. Ehlert, S. Grimme, ChemRxiv, 2019, preprint.
     DOI: 10.26434/chemrxiv.8326202.v1
   for GFN-FF:
   * S. Spicher and S. Grimme, Angew. Chem. Int. Ed., 2020, 59, 15665-15673.
     DOI: 10.1002/anie.202004239
   
   for ALPB and GBSA implicit solvation:
   * S. Ehlert, M. Stahn, S. Spicher, S. Grimme, J. Chem. Theory Comput.,
     2021, 17, 4250-4261. DOI: 10.1021/acs.jctc.1c00471
   
   for ddCOSMO and CPCM-X implicit solvation:
   * M. Stahn, S. Ehlert, S. Grimme, J. Phys. Chem. A,
     2023, XX, XXXX-XXXX. DOI: 10.1021/acs.jpca.3c04382
   
   for DFT-D4:
   * E. Caldeweyher, C. Bannwarth and S. Grimme, J. Chem. Phys., 2017,
     147, 034112. DOI: 10.1063/1.4993215
   * E. Caldeweyher, S. Ehlert, A. Hansen, H. Neugebauer, S. Spicher,
     C. Bannwarth and S. Grimme, J. Chem. Phys., 2019, 150, 154122.
     DOI: 10.1063/1.5090222
   * E. Caldeweyher, J.-M. Mewes, S. Ehlert and S. Grimme, Phys. Chem. Chem. Phys.
     2020, 22, 8499-8512. DOI: 10.1039/D0CP00502A
   
   for sTDA-xTB:
   * S. Grimme and C. Bannwarth, J. Chem. Phys., 2016, 145, 054103.
     DOI: 10.1063/1.4959605
   
   in the mass-spec context:
   * V. Asgeirsson, C. Bauer and S. Grimme, Chem. Sci., 2017, 8, 4879.
     DOI: 10.1039/c7sc00601b
   * J. Koopman and S. Grimme, ACS Omega 2019, 4, 12, 15120-15133.
     DOI: 10.1021/acsomega.9b02011
   
   for metadynamics refer to:
   * S. Grimme, J. Chem. Theory Comput., 2019, 155, 2847-2862
     DOI: 10.1021/acs.jctc.9b00143
   
   for SPH calculations refer to:
   * S. Spicher and S. Grimme, J. Chem. Theory Comput., 2021, 17, 1701-1714
     DOI: 10.1021/acs.jctc.0c01306
   
   for ONIOM refer to:
   * C. Plett, A. Katbashev, S. Ehlert, S. Grimme, M. Bursch,
     Phys. Chem. Chem. Phys., 2023, 25, 17860-17868. DOI: 10.1039/D3CP02178E
   
   for DIPRO refer to:
   * J. Kohn, N. Gildemeister, S. Grimme, D. Fazzi, A. Hansen,
     J. Chem. Phys., 2023, just accepted.
   
   for PTB refer to:
   * S. Grimme, M. Mueller, A. Hansen, J. Chem. Phys., 2023, 158, 124111.
     DOI: 10.1063/5.0137838
   
   with help from (in alphabetical order)
   P. Atkinson, C. Bannwarth, F. Bohle, G. Brandenburg, E. Caldeweyher
   M. Checinski, S. Dohm, S. Ehlert, S. Ehrlich, I. Gerasimov, C. Hölzer
   A. Katbashev, J. Kohn, J. Koopman, C. Lavigne, S. Lehtola, F. März, M. Müller,
   F. Musil, H. Neugebauer, J. Pisarek, C. Plett, P. Pracht, F. Pultar,
   J. Seibert, P. Shushkov, S. Spicher, M. Stahn, M. Steiner, T. Strunk,
   J. Stückrath, T. Rose, and J. Unsleber
   
 * started run on 2025/06/25 at 12:06:43.417     
$$$$$$$$$$$$$$$$$$$$$$$$$$$$$$$$$$$$$$$$$$$$$$$$$$$$$$$$$$$$$$$$$$$$$$$$
 CONSTRAINTS & SCANS: DEBUG SECTION
$$$$$$$$$$$$$$$$$$$$$$$$$$$$$$$$$$$$$$$$$$$$$$$$$$$$$$$$$$$$$$$$$$$$$$$$
   ID    Z sym.   atoms
    1    6 C      1-3, 7-9
    2    7 N      4, 6
    3   16 S      5
    4    1 H      10-13
$$$$$$$$$$$$$$$$$$$$$$$$$$$$$$$$$$$$$$$$$$$$$$$$$$$$$$$$$$$$$$$$$$$$$$$$

           -------------------------------------------------
          |                Calculation Setup                |
           -------------------------------------------------

          program call               : C:\Users\nkapa\Downloads\xtb-6.7.1pre-windows-x86_64\xtb-6.7.1\bin\xtb.EXE dft_tmp\mol_250.xyz --gfn2 --parallel 8 --verbose
          coordinate file            : dft_tmp\mol_250.xyz
          xtbhome directory          : C:\Users\nkapa\AppData\Roaming\SPB_Data
          path for xtb               : C:\Users\nkapa\Downloads\xtb-6.7.1pre-windows-x86_64\xtb-6.7.1\share\xtb
          xcontrol input file        : dft_tmp\mol_250.xyz
          omp threads                :                     8


           -------------------------------------------------
          |                 G F N 2 - x T B                 |
           -------------------------------------------------

        Reference                      10.1021/acs.jctc.8b01176
      * Hamiltonian:
        H0-scaling (s, p, d)           1.850000    2.230000    2.230000
        zeta-weighting                 0.500000
      * Dispersion:
        s8                             2.700000
        a1                             0.520000
        a2                             5.000000
        s9                             5.000000
      * Repulsion:
        kExp                           1.500000    1.000000
        rExp                           1.000000
      * Coulomb:
        alpha                          2.000000
        third order                    shell-resolved
        anisotropic                    true
        a3                             3.000000
        a5                             4.000000
        cn-shift                       1.200000
        cn-exp                         4.000000
        max-rad                        5.000000


          ...................................................
          :                      SETUP                      :
          :.................................................:
          :  # basis functions                  46          :
          :  # atomic orbitals                  45          :
          :  # shells                           23          :
          :  # electrons                        44          :
          :  max. iterations                   250          :
          :  Hamiltonian                  GFN2-xTB          :
          :  restarted?                      false          :
          :  GBSA solvation                  false          :
          :  PC potential                    false          :
          :  electronic temp.          300.0000000     K    :
          :  accuracy                    1.0000000          :
          :  -> integral cutoff          0.2500000E+02      :
          :  -> integral neglect         0.1000000E-07      :
          :  -> SCF convergence          0.1000000E-05 Eh   :
          :  -> wf. convergence          0.1000000E-03 e    :
          :  Broyden damping             0.4000000          :
          :  net charge                          0          :
          :  unpaired electrons                  0          :
          ...................................................

 iter      E             dE          RMSdq      gap      omega  full diag
   1    -24.2194527 -0.242195E+02  0.516E+00    2.42       0.0  T
   2    -24.2545092 -0.350565E-01  0.316E+00    2.24       1.0  T
   3    -24.2545956 -0.864063E-04  0.154E+00    2.28       1.0  T
   4    -24.2642744 -0.967874E-02  0.382E-01    2.21       1.0  T
   5    -24.2649187 -0.644307E-03  0.182E-01    2.19       1.0  T
   6    -24.2651351 -0.216379E-03  0.774E-02    2.21       1.0  T
   7    -24.2651729 -0.378198E-04  0.259E-02    2.21       1.1  T
   8    -24.2651729  0.140358E-07  0.788E-03    2.21       3.5  T
   9    -24.2651732 -0.297815E-06  0.250E-03    2.21      11.1  T
  10    -24.2651732 -0.428449E-08  0.766E-04    2.21      36.2  T
  11    -24.2651732 -0.124107E-08  0.323E-04    2.21      85.8  T

   *** convergence criteria satisfied after 11 iterations ***

         #    Occupation            Energy/Eh            Energy/eV
      -------------------------------------------------------------
         1        2.0000           -0.7612783             -20.7154
       ...           ...                  ...                  ...
        16        2.0000           -0.4647754             -12.6472
        17        2.0000           -0.4630146             -12.5993
        18        2.0000           -0.4538036             -12.3486
        19        2.0000           -0.4294590             -11.6862
        20        2.0000           -0.4213039             -11.4643
        21        2.0000           -0.4147220             -11.2852
        22        2.0000           -0.4003562             -10.8942 (HOMO)
        23                         -0.3191062              -8.6833 (LUMO)
        24                         -0.2287203              -6.2238
        25                         -0.2269563              -6.1758
        26                         -0.2053152              -5.5869
        27                         -0.1728398              -4.7032
       ...                                ...                  ...
        45                          0.6635693              18.0566
      -------------------------------------------------------------
                  HL-Gap            0.0812499 Eh            2.2109 eV
             Fermi-level           -0.3597312 Eh           -9.7888 eV

 SCC (total)                   0 d,  0 h,  0 min,  0.007 sec
 SCC setup                      ...        0 min,  0.000 sec (  0.000%)
 Dispersion                     ...        0 min,  0.000 sec (  0.000%)
 classical contributions        ...        0 min,  0.000 sec (  0.000%)
 integral evaluation            ...        0 min,  0.001 sec ( 14.288%)
 iterations                     ...        0 min,  0.005 sec ( 71.427%)
 molecular gradient             ...        0 min,  0.001 sec ( 14.285%)
 printout                       ...        0 min,  0.000 sec (  0.000%)

         :::::::::::::::::::::::::::::::::::::::::::::::::::::
         ::                     SUMMARY                     ::
         :::::::::::::::::::::::::::::::::::::::::::::::::::::
         :: total energy             -23.945428056192 Eh    ::
         :: gradient norm              0.120543143089 Eh/a0 ::
         :: HOMO-LUMO gap              2.210922878932 eV    ::
         ::.................................................::
         :: HOMO orbital eigv.       -10.894245830798 eV    ::
         :: LUMO orbital eigv.        -8.683322951866 eV    ::
         ::.................................................::
         :: SCC energy               -24.265152754198 Eh    ::
         :: -> isotropic ES            0.016478511775 Eh    ::
         :: -> anisotropic ES          0.003524822978 Eh    ::
         :: -> anisotropic XC          0.016909233837 Eh    ::
         :: -> dispersion             -0.012794643118 Eh    ::
         :: repulsion energy           0.319724698006 Eh    ::
         :: add. restraining           0.000000000000 Eh    ::
         :: total charge               0.000000000000 e     ::
         ::.................................................::
         :: atomisation energy         4.428224649451 Eh    ::
         :::::::::::::::::::::::::::::::::::::::::::::::::::::

           -------------------------------------------------
          |                Property Printout                |
           -------------------------------------------------

    * Orbital Energies and Occupations

         #    Occupation            Energy/Eh            Energy/eV
      -------------------------------------------------------------
         1        2.0000           -0.7612783             -20.7154
       ...           ...                  ...                  ...
        10        2.0000           -0.5319900             -14.4762
        11        2.0000           -0.5293371             -14.4040
        12        2.0000           -0.5227243             -14.2241
        13        2.0000           -0.4973293             -13.5330
        14        2.0000           -0.4722116             -12.8495
        15        2.0000           -0.4656810             -12.6718
        16        2.0000           -0.4647754             -12.6472
        17        2.0000           -0.4630146             -12.5993
        18        2.0000           -0.4538036             -12.3486
        19        2.0000           -0.4294590             -11.6862
        20        2.0000           -0.4213039             -11.4643
        21        2.0000           -0.4147220             -11.2852
        22        2.0000           -0.4003562             -10.8942 (HOMO)
        23                         -0.3191062              -8.6833 (LUMO)
        24                         -0.2287203              -6.2238
        25                         -0.2269563              -6.1758
        26                         -0.2053152              -5.5869
        27                         -0.1728398              -4.7032
        28                         -0.1090661              -2.9678
        29                         -0.0106533              -0.2899
        30                          0.0246833               0.6717
        31                          0.0378566               1.0301
        32                          0.1049994               2.8572
        33                          0.1155390               3.1440
       ...                                ...                  ...
        45                          0.6635693              18.0566
      -------------------------------------------------------------
                  HL-Gap            0.0812499 Eh            2.2109 eV
             Fermi-level           -0.3597312 Eh           -9.7888 eV

     #   Z          covCN         q      C6AA      α(0)
     1   6 C        2.910    -0.030    28.744     8.791
     2   6 C        2.909    -0.043    29.075     8.842
     3   6 C        3.469     0.079    21.270     6.922
     4   7 N        1.838    -0.262    27.657     7.793
     5  16 S        2.959     0.324   128.539    19.082
     6   7 N        1.838    -0.262    27.657     7.793
     7   6 C        3.469     0.079    21.270     6.922
     8   6 C        2.909    -0.043    29.075     8.842
     9   6 C        2.910    -0.030    28.744     8.791
    10   1 H        0.925     0.044     2.398     2.422
    11   1 H        0.925     0.051     2.313     2.378
    12   1 H        0.925     0.051     2.313     2.378
    13   1 H        0.925     0.044     2.398     2.422

 Mol. C6AA /au·bohr⁶  :       3438.700779
 Mol. C8AA /au·bohr⁸  :      99159.894837
 Mol. α(0) /au        :         93.379013


Wiberg/Mayer (AO) data.
largest (>0.10) Wiberg bond orders for each atom

 ---------------------------------------------------------------------------
     #   Z sym  total        # sym  WBO       # sym  WBO       # sym  WBO
 ---------------------------------------------------------------------------
     1   6 C    3.990 --     2 C    1.520     9 C    1.347    10 H    0.971
     2   6 C    3.990 --     1 C    1.520     3 C    1.288    11 H    0.968
                             8 C    0.129
     3   6 C    3.976 --     4 N    1.337     2 C    1.288     7 C    1.172
     4   7 N    3.074 --     5 S    1.434     3 C    1.337     6 N    0.204
     5  16 S    3.195 --     4 N    1.434     6 N    1.434
     6   7 N    3.074 --     5 S    1.434     7 C    1.337     4 N    0.204
     7   6 C    3.976 --     6 N    1.337     8 C    1.288     3 C    1.172
     8   6 C    3.990 --     9 C    1.520     7 C    1.288    12 H    0.968
                             2 C    0.129
     9   6 C    3.990 --     8 C    1.520     1 C    1.347    13 H    0.971
    10   1 H    0.997 --     1 C    0.971
    11   1 H    0.997 --     2 C    0.968
    12   1 H    0.997 --     8 C    0.968
    13   1 H    0.997 --     9 C    0.971
 ---------------------------------------------------------------------------

Topologies differ in total number of bonds
Writing topology from bond orders to xtbtopo.mol

molecular dipole:
                 x           y           z       tot (Debye)
 q only:       -0.167       0.000      -0.004
   full:       -0.633       0.000      -0.017       1.610
molecular quadrupole (traceless):
                xx          xy          yy          xz          yz          zz
 q only:        5.154      -0.007      -3.304       0.185       0.135      -1.849
  q+dip:        2.658      -0.001      -1.189       0.109      -0.026      -1.469
   full:        1.886      -0.013      -3.182       0.016       0.417       1.296


           -------------------------------------------------
          | TOTAL ENERGY              -23.945428056192 Eh   |
          | GRADIENT NORM               0.120543143089 Eh/α |
          | HOMO-LUMO GAP               2.210922878932 eV   |
           -------------------------------------------------
########################################################################
[WARNING] Runtime exception occurred
-2- restart_readRestart: Dimension missmatch in restart file.
-1- restart_readRestart: Number of electron missmatch in restart file.
########################################################################

------------------------------------------------------------------------
 unit  open   action     filename
  129 false : read       dft_tmp\mol_250.xyz
  129 false : read       dft_tmp\mol_250.xyz
  129 false : read       dft_tmp\mol_250.xyz
  129 false : read       C:\Users\nkapa\Downloads\xtb-6.7.1pre-windows-x86_64\xtb-6.7.1\share\xtb\param_gfn2-xtb.txt
  129 false : read       xtbrestart
  129 false : replaced   charges
  129 false : replaced   wbo
  129 false : replaced   xtbtopo.mol
  129 false : replaced   xtbrestart

------------------------------------------------------------------------
 * finished run on 2025/06/25 at 12:06:43.442     
------------------------------------------------------------------------
 total:
 * wall-time:     0 d,  0 h,  0 min,  0.024 sec
 *  cpu-time:     0 d,  0 h,  0 min,  0.219 sec
 * ratio c/w:     9.115 speedup
 SCF:
 * wall-time:     0 d,  0 h,  0 min,  0.007 sec
 *  cpu-time:     0 d,  0 h,  0 min,  0.000 sec
 * ratio c/w:     0.000 speedup

normal termination of xtb
