      -----------------------------------------------------------      
     |                   =====================                   |     
     |                           x T B                           |     
     |                   =====================                   |     
     |                         S. Grimme                         |     
     |          Mulliken Center for Theoretical Chemistry        |     
     |                    University of Bonn                     |     
      -----------------------------------------------------------      

   * xtb version 6.7.1pre (5071a88) compiled by 'Marcel@Raven' on 2024-07-23

   xtb is free software: you can redistribute it and/or modify it under
   the terms of the GNU Lesser General Public License as published by
   the Free Software Foundation, either version 3 of the License, or
   (at your option) any later version.
   
   xtb is distributed in the hope that it will be useful,
   but WITHOUT ANY WARRANTY; without even the implied warranty of
   MERCHANTABILITY or FITNESS FOR A PARTICULAR PURPOSE.  See the
   GNU Lesser General Public License for more details.
   
   Cite this work as:
   * C. Bannwarth, E. Caldeweyher, S. Ehlert, A. Hansen, P. Pracht,
     J. Seibert, S. Spicher, S. Grimme, WIREs Comput. Mol. Sci., 2020, 11,
     e01493. DOI: 10.1002/wcms.1493
   
   for GFN2-xTB:
   * C. Bannwarth, S. Ehlert and S. Grimme., J. Chem. Theory Comput., 2019,
     15, 1652-1671. DOI: 10.1021/acs.jctc.8b01176
   for GFN1-xTB:
   * S. Grimme, C. Bannwarth, P. Shushkov, J. Chem. Theory Comput., 2017,
     13, 1989-2009. DOI: 10.1021/acs.jctc.7b00118
   for GFN0-xTB:
   * P. Pracht, E. Caldeweyher, S. Ehlert, S. Grimme, ChemRxiv, 2019, preprint.
     DOI: 10.26434/chemrxiv.8326202.v1
   for GFN-FF:
   * S. Spicher and S. Grimme, Angew. Chem. Int. Ed., 2020, 59, 15665-15673.
     DOI: 10.1002/anie.202004239
   
   for ALPB and GBSA implicit solvation:
   * S. Ehlert, M. Stahn, S. Spicher, S. Grimme, J. Chem. Theory Comput.,
     2021, 17, 4250-4261. DOI: 10.1021/acs.jctc.1c00471
   
   for ddCOSMO and CPCM-X implicit solvation:
   * M. Stahn, S. Ehlert, S. Grimme, J. Phys. Chem. A,
     2023, XX, XXXX-XXXX. DOI: 10.1021/acs.jpca.3c04382
   
   for DFT-D4:
   * E. Caldeweyher, C. Bannwarth and S. Grimme, J. Chem. Phys., 2017,
     147, 034112. DOI: 10.1063/1.4993215
   * E. Caldeweyher, S. Ehlert, A. Hansen, H. Neugebauer, S. Spicher,
     C. Bannwarth and S. Grimme, J. Chem. Phys., 2019, 150, 154122.
     DOI: 10.1063/1.5090222
   * E. Caldeweyher, J.-M. Mewes, S. Ehlert and S. Grimme, Phys. Chem. Chem. Phys.
     2020, 22, 8499-8512. DOI: 10.1039/D0CP00502A
   
   for sTDA-xTB:
   * S. Grimme and C. Bannwarth, J. Chem. Phys., 2016, 145, 054103.
     DOI: 10.1063/1.4959605
   
   in the mass-spec context:
   * V. Asgeirsson, C. Bauer and S. Grimme, Chem. Sci., 2017, 8, 4879.
     DOI: 10.1039/c7sc00601b
   * J. Koopman and S. Grimme, ACS Omega 2019, 4, 12, 15120-15133.
     DOI: 10.1021/acsomega.9b02011
   
   for metadynamics refer to:
   * S. Grimme, J. Chem. Theory Comput., 2019, 155, 2847-2862
     DOI: 10.1021/acs.jctc.9b00143
   
   for SPH calculations refer to:
   * S. Spicher and S. Grimme, J. Chem. Theory Comput., 2021, 17, 1701-1714
     DOI: 10.1021/acs.jctc.0c01306
   
   for ONIOM refer to:
   * C. Plett, A. Katbashev, S. Ehlert, S. Grimme, M. Bursch,
     Phys. Chem. Chem. Phys., 2023, 25, 17860-17868. DOI: 10.1039/D3CP02178E
   
   for DIPRO refer to:
   * J. Kohn, N. Gildemeister, S. Grimme, D. Fazzi, A. Hansen,
     J. Chem. Phys., 2023, just accepted.
   
   for PTB refer to:
   * S. Grimme, M. Mueller, A. Hansen, J. Chem. Phys., 2023, 158, 124111.
     DOI: 10.1063/5.0137838
   
   with help from (in alphabetical order)
   P. Atkinson, C. Bannwarth, F. Bohle, G. Brandenburg, E. Caldeweyher
   M. Checinski, S. Dohm, S. Ehlert, S. Ehrlich, I. Gerasimov, C. Hölzer
   A. Katbashev, J. Kohn, J. Koopman, C. Lavigne, S. Lehtola, F. März, M. Müller,
   F. Musil, H. Neugebauer, J. Pisarek, C. Plett, P. Pracht, F. Pultar,
   J. Seibert, P. Shushkov, S. Spicher, M. Stahn, M. Steiner, T. Strunk,
   J. Stückrath, T. Rose, and J. Unsleber
   
 * started run on 2025/06/25 at 12:07:09.462     
$$$$$$$$$$$$$$$$$$$$$$$$$$$$$$$$$$$$$$$$$$$$$$$$$$$$$$$$$$$$$$$$$$$$$$$$
 CONSTRAINTS & SCANS: DEBUG SECTION
$$$$$$$$$$$$$$$$$$$$$$$$$$$$$$$$$$$$$$$$$$$$$$$$$$$$$$$$$$$$$$$$$$$$$$$$
   ID    Z sym.   atoms
    1    6 C      1, 3, 4, 6, 7, 9, 10, 12
    2    8 O      2, 5, 8, 11
    3    1 H      13-30
$$$$$$$$$$$$$$$$$$$$$$$$$$$$$$$$$$$$$$$$$$$$$$$$$$$$$$$$$$$$$$$$$$$$$$$$

           -------------------------------------------------
          |                Calculation Setup                |
           -------------------------------------------------

          program call               : C:\Users\nkapa\Downloads\xtb-6.7.1pre-windows-x86_64\xtb-6.7.1\bin\xtb.EXE dft_tmp\mol_444.xyz --gfn2 --parallel 8 --verbose
          coordinate file            : dft_tmp\mol_444.xyz
          xtbhome directory          : C:\Users\nkapa\AppData\Roaming\SPB_Data
          path for xtb               : C:\Users\nkapa\Downloads\xtb-6.7.1pre-windows-x86_64\xtb-6.7.1\share\xtb
          xcontrol input file        : dft_tmp\mol_444.xyz
          omp threads                :                     8


           -------------------------------------------------
          |                 G F N 2 - x T B                 |
           -------------------------------------------------

        Reference                      10.1021/acs.jctc.8b01176
      * Hamiltonian:
        H0-scaling (s, p, d)           1.850000    2.230000    2.230000
        zeta-weighting                 0.500000
      * Dispersion:
        s8                             2.700000
        a1                             0.520000
        a2                             5.000000
        s9                             5.000000
      * Repulsion:
        kExp                           1.500000    1.000000
        rExp                           1.000000
      * Coulomb:
        alpha                          2.000000
        third order                    shell-resolved
        anisotropic                    true
        a3                             3.000000
        a5                             4.000000
        cn-shift                       1.200000
        cn-exp                         4.000000
        max-rad                        5.000000


          ...................................................
          :                      SETUP                      :
          :.................................................:
          :  # basis functions                  66          :
          :  # atomic orbitals                  66          :
          :  # shells                           42          :
          :  # electrons                        74          :
          :  max. iterations                   250          :
          :  Hamiltonian                  GFN2-xTB          :
          :  restarted?                      false          :
          :  GBSA solvation                  false          :
          :  PC potential                    false          :
          :  electronic temp.          300.0000000     K    :
          :  accuracy                    1.0000000          :
          :  -> integral cutoff          0.2500000E+02      :
          :  -> integral neglect         0.1000000E-07      :
          :  -> SCF convergence          0.1000000E-05 Eh   :
          :  -> wf. convergence          0.1000000E-03 e    :
          :  Broyden damping             0.4000000          :
          :  net charge                          0          :
          :  unpaired electrons                  0          :
          ...................................................

 iter      E             dE          RMSdq      gap      omega  full diag
   1    -42.7724215 -0.427724E+02  0.447E+00   10.48       0.0  T
   2    -42.8751270 -0.102705E+00  0.231E+00   10.12       1.0  T
   3    -42.8762524 -0.112540E-02  0.949E-01   10.21       1.0  T
   4    -42.8765802 -0.327750E-03  0.117E-01   10.26       1.0  T
   5    -42.8765811 -0.953172E-06  0.286E-02   10.27       1.0  T
   6    -42.8765907 -0.959228E-05  0.586E-03   10.27       3.1  T
   7    -42.8765909 -0.172136E-06  0.351E-03   10.27       5.2  T
   8    -42.8765909 -0.366498E-07  0.115E-03   10.27      15.9  T
   9    -42.8765909 -0.451861E-08  0.179E-04   10.27     102.0  T
  10    -42.8765909 -0.152291E-09  0.676E-05   10.27     270.2  T

   *** convergence criteria satisfied after 10 iterations ***

         #    Occupation            Energy/Eh            Energy/eV
      -------------------------------------------------------------
         1        2.0000           -0.7044152             -19.1681
       ...           ...                  ...                  ...
        31        2.0000           -0.4552213             -12.3872
        32        2.0000           -0.4531180             -12.3300
        33        2.0000           -0.4479257             -12.1887
        34        2.0000           -0.4079558             -11.1010
        35        2.0000           -0.4066376             -11.0652
        36        2.0000           -0.4024336             -10.9508
        37        2.0000           -0.3972027             -10.8084 (HOMO)
        38                         -0.0196760              -0.5354 (LUMO)
        39                          0.0143918               0.3916
        40                          0.0398585               1.0846
        41                          0.0715712               1.9476
        42                          0.0735368               2.0010
       ...                                ...                  ...
        66                          0.2553690               6.9489
      -------------------------------------------------------------
                  HL-Gap            0.3775268 Eh           10.2730 eV
             Fermi-level           -0.2084393 Eh           -5.6719 eV

 SCC (total)                   0 d,  0 h,  0 min,  0.012 sec
 SCC setup                      ...        0 min,  0.000 sec (  0.000%)
 Dispersion                     ...        0 min,  0.001 sec (  8.333%)
 classical contributions        ...        0 min,  0.000 sec (  0.000%)
 integral evaluation            ...        0 min,  0.000 sec (  0.000%)
 iterations                     ...        0 min,  0.009 sec ( 75.000%)
 molecular gradient             ...        0 min,  0.001 sec (  8.333%)
 printout                       ...        0 min,  0.001 sec (  8.335%)

         :::::::::::::::::::::::::::::::::::::::::::::::::::::
         ::                     SUMMARY                     ::
         :::::::::::::::::::::::::::::::::::::::::::::::::::::
         :: total energy             -42.524699407017 Eh    ::
         :: gradient norm              0.060865769583 Eh/a0 ::
         :: HOMO-LUMO gap             10.273025865892 eV    ::
         ::.................................................::
         :: HOMO orbital eigv.       -10.808435948157 eV    ::
         :: LUMO orbital eigv.        -0.535410082265 eV    ::
         ::.................................................::
         :: SCC energy               -42.876711858392 Eh    ::
         :: -> isotropic ES            0.067850552934 Eh    ::
         :: -> anisotropic ES          0.009696478416 Eh    ::
         :: -> anisotropic XC          0.004152901846 Eh    ::
         :: -> dispersion             -0.017861636673 Eh    ::
         :: repulsion energy           0.352012451375 Eh    ::
         :: add. restraining           0.000000000000 Eh    ::
         :: total charge               0.000000000000 e     ::
         ::.................................................::
         :: atomisation energy         7.395802724854 Eh    ::
         :::::::::::::::::::::::::::::::::::::::::::::::::::::

           -------------------------------------------------
          |                Property Printout                |
           -------------------------------------------------

    * Orbital Energies and Occupations

         #    Occupation            Energy/Eh            Energy/eV
      -------------------------------------------------------------
         1        2.0000           -0.7044152             -19.1681
       ...           ...                  ...                  ...
        25        2.0000           -0.4922507             -13.3948
        26        2.0000           -0.4857126             -13.2169
        27        2.0000           -0.4736841             -12.8896
        28        2.0000           -0.4650975             -12.6559
        29        2.0000           -0.4629544             -12.5976
        30        2.0000           -0.4608145             -12.5394
        31        2.0000           -0.4552213             -12.3872
        32        2.0000           -0.4531180             -12.3300
        33        2.0000           -0.4479257             -12.1887
        34        2.0000           -0.4079558             -11.1010
        35        2.0000           -0.4066376             -11.0652
        36        2.0000           -0.4024336             -10.9508
        37        2.0000           -0.3972027             -10.8084 (HOMO)
        38                         -0.0196760              -0.5354 (LUMO)
        39                          0.0143918               0.3916
        40                          0.0398585               1.0846
        41                          0.0715712               1.9476
        42                          0.0735368               2.0010
        43                          0.0824323               2.2431
        44                          0.0879187               2.3924
        45                          0.0892131               2.4276
        46                          0.0991144               2.6970
        47                          0.0997379               2.7140
        48                          0.1085884               2.9548
       ...                                ...                  ...
        66                          0.2553690               6.9489
      -------------------------------------------------------------
                  HL-Gap            0.3775268 Eh           10.2730 eV
             Fermi-level           -0.2084393 Eh           -5.6719 eV

     #   Z          covCN         q      C6AA      α(0)
     1   6 C        3.657     0.042    20.157     6.444
     2   8 O        1.700    -0.293    18.864     5.864
     3   6 C        3.710     0.075    19.457     6.304
     4   6 C        3.718     0.083    19.319     6.279
     5   8 O        1.701    -0.303    19.049     5.893
     6   6 C        3.718     0.079    19.384     6.289
     7   6 C        3.709     0.073    19.487     6.309
     8   8 O        1.700    -0.316    19.270     5.927
     9   6 C        3.709     0.080    19.380     6.292
    10   6 C        3.721     0.080    19.350     6.282
    11   8 O        1.700    -0.309    19.149     5.908
    12   6 C        3.668     0.042    20.122     6.432
    13   1 H        0.921     0.029     2.608     2.525
    14   1 H        0.921     0.028     2.609     2.526
    15   1 H        0.922     0.057     2.232     2.336
    16   1 H        0.921     0.057     2.238     2.339
    17   1 H        0.920     0.028     2.623     2.533
    18   1 H        0.921     0.019     2.751     2.594
    19   1 H        0.921     0.025     2.654     2.548
    20   1 H        0.921     0.034     2.528     2.486
    21   1 H        0.921     0.023     2.694     2.567
    22   1 H        0.920     0.041     2.435     2.440
    23   1 H        0.921     0.062     2.173     2.305
    24   1 H        0.921     0.035     2.522     2.484
    25   1 H        0.921     0.039     2.469     2.457
    26   1 H        0.921     0.034     2.535     2.490
    27   1 H        0.921     0.037     2.493     2.469
    28   1 H        0.921     0.032     2.559     2.502
    29   1 H        0.922     0.057     2.234     2.338
    30   1 H        0.921     0.031     2.572     2.508

 Mol. C6AA /au·bohr⁶  :       6574.733420
 Mol. C8AA /au·bohr⁸  :     134590.178351
 Mol. α(0) /au        :        118.671226


Wiberg/Mayer (AO) data.
largest (>0.10) Wiberg bond orders for each atom

 ---------------------------------------------------------------------------
     #   Z sym  total        # sym  WBO       # sym  WBO       # sym  WBO
 ---------------------------------------------------------------------------
     1   6 C    3.953 --     2 O    0.999    15 H    0.979    14 H    0.977
                            13 H    0.976
     2   8 O    2.085 --     1 C    0.999     3 C    0.994
     3   6 C    3.960 --     2 O    0.994     4 C    0.992    16 H    0.967
                            17 H    0.966
     4   6 C    3.958 --     3 C    0.992     5 O    0.989    18 H    0.964
                            19 H    0.963
     5   8 O    2.078 --     4 C    0.989     6 C    0.987
     6   6 C    3.954 --     7 C    0.991     5 O    0.987    20 H    0.965
                            21 H    0.964
     7   6 C    3.948 --     6 C    0.991     8 O    0.984    23 H    0.967
                            22 H    0.967
     8   8 O    2.068 --     7 C    0.984     9 C    0.984
     9   6 C    3.952 --    10 C    0.996     8 O    0.984    24 H    0.967
                            25 H    0.966
    10   6 C    3.955 --     9 C    0.996    11 O    0.989    26 H    0.965
                            27 H    0.965
    11   8 O    2.073 --    12 C    0.996    10 C    0.989
    12   6 C    3.949 --    11 O    0.996    29 H    0.980    30 H    0.976
                            28 H    0.976
    13   1 H    0.999 --     1 C    0.976
    14   1 H    0.999 --     1 C    0.977
    15   1 H    0.997 --     1 C    0.979
    16   1 H    0.997 --     3 C    0.967
    17   1 H    0.999 --     3 C    0.966
    18   1 H    1.000 --     4 C    0.964
    19   1 H    0.999 --     4 C    0.963
    20   1 H    0.999 --     6 C    0.965
    21   1 H    0.999 --     6 C    0.964
    22   1 H    0.998 --     7 C    0.967
    23   1 H    0.996 --     7 C    0.967
    24   1 H    0.999 --     9 C    0.967
    25   1 H    0.999 --     9 C    0.966
    26   1 H    0.999 --    10 C    0.965
    27   1 H    0.999 --    10 C    0.965
    28   1 H    0.999 --    12 C    0.976
    29   1 H    0.996 --    12 C    0.980
    30   1 H    0.999 --    12 C    0.976
 ---------------------------------------------------------------------------

Topologies differ in total number of bonds
Writing topology from bond orders to xtbtopo.mol

molecular dipole:
                 x           y           z       tot (Debye)
 q only:        0.049       0.692       0.487
   full:        0.064       1.013       0.668       3.090
molecular quadrupole (traceless):
                xx          xy          yy          xz          yz          zz
 q only:       10.065       4.965      -4.828       0.135      -0.434      -5.237
  q+dip:        7.044       9.172      -2.949       0.862      -0.425      -4.095
   full:        9.074       8.482      -4.140       0.658      -0.491      -4.933


           -------------------------------------------------
          | TOTAL ENERGY              -42.524699407017 Eh   |
          | GRADIENT NORM               0.060865769583 Eh/α |
          | HOMO-LUMO GAP              10.273025865892 eV   |
           -------------------------------------------------
########################################################################
[WARNING] Runtime exception occurred
-2- restart_readRestart: Dimension missmatch in restart file.
-1- restart_readRestart: Number of electron missmatch in restart file.
########################################################################

------------------------------------------------------------------------
 unit  open   action     filename
  129 false : read       dft_tmp\mol_444.xyz
  129 false : read       dft_tmp\mol_444.xyz
  129 false : read       dft_tmp\mol_444.xyz
  129 false : read       C:\Users\nkapa\Downloads\xtb-6.7.1pre-windows-x86_64\xtb-6.7.1\share\xtb\param_gfn2-xtb.txt
  129 false : read       xtbrestart
  129 false : replaced   charges
  129 false : replaced   wbo
  129 false : replaced   xtbtopo.mol
  129 false : replaced   xtbrestart

------------------------------------------------------------------------
 * finished run on 2025/06/25 at 12:07:09.524     
------------------------------------------------------------------------
 total:
 * wall-time:     0 d,  0 h,  0 min,  0.061 sec
 *  cpu-time:     0 d,  0 h,  0 min,  0.250 sec
 * ratio c/w:     4.098 speedup
 SCF:
 * wall-time:     0 d,  0 h,  0 min,  0.012 sec
 *  cpu-time:     0 d,  0 h,  0 min,  0.125 sec
 * ratio c/w:    10.417 speedup

normal termination of xtb
