      -----------------------------------------------------------      
     |                   =====================                   |     
     |                           x T B                           |     
     |                   =====================                   |     
     |                         S. Grimme                         |     
     |          Mulliken Center for Theoretical Chemistry        |     
     |                    University of Bonn                     |     
      -----------------------------------------------------------      

   * xtb version 6.7.1pre (5071a88) compiled by 'Marcel@Raven' on 2024-07-23

   xtb is free software: you can redistribute it and/or modify it under
   the terms of the GNU Lesser General Public License as published by
   the Free Software Foundation, either version 3 of the License, or
   (at your option) any later version.
   
   xtb is distributed in the hope that it will be useful,
   but WITHOUT ANY WARRANTY; without even the implied warranty of
   MERCHANTABILITY or FITNESS FOR A PARTICULAR PURPOSE.  See the
   GNU Lesser General Public License for more details.
   
   Cite this work as:
   * C. Bannwarth, E. Caldeweyher, S. Ehlert, A. Hansen, P. Pracht,
     J. Seibert, S. Spicher, S. Grimme, WIREs Comput. Mol. Sci., 2020, 11,
     e01493. DOI: 10.1002/wcms.1493
   
   for GFN2-xTB:
   * C. Bannwarth, S. Ehlert and S. Grimme., J. Chem. Theory Comput., 2019,
     15, 1652-1671. DOI: 10.1021/acs.jctc.8b01176
   for GFN1-xTB:
   * S. Grimme, C. Bannwarth, P. Shushkov, J. Chem. Theory Comput., 2017,
     13, 1989-2009. DOI: 10.1021/acs.jctc.7b00118
   for GFN0-xTB:
   * P. Pracht, E. Caldeweyher, S. Ehlert, S. Grimme, ChemRxiv, 2019, preprint.
     DOI: 10.26434/chemrxiv.8326202.v1
   for GFN-FF:
   * S. Spicher and S. Grimme, Angew. Chem. Int. Ed., 2020, 59, 15665-15673.
     DOI: 10.1002/anie.202004239
   
   for ALPB and GBSA implicit solvation:
   * S. Ehlert, M. Stahn, S. Spicher, S. Grimme, J. Chem. Theory Comput.,
     2021, 17, 4250-4261. DOI: 10.1021/acs.jctc.1c00471
   
   for ddCOSMO and CPCM-X implicit solvation:
   * M. Stahn, S. Ehlert, S. Grimme, J. Phys. Chem. A,
     2023, XX, XXXX-XXXX. DOI: 10.1021/acs.jpca.3c04382
   
   for DFT-D4:
   * E. Caldeweyher, C. Bannwarth and S. Grimme, J. Chem. Phys., 2017,
     147, 034112. DOI: 10.1063/1.4993215
   * E. Caldeweyher, S. Ehlert, A. Hansen, H. Neugebauer, S. Spicher,
     C. Bannwarth and S. Grimme, J. Chem. Phys., 2019, 150, 154122.
     DOI: 10.1063/1.5090222
   * E. Caldeweyher, J.-M. Mewes, S. Ehlert and S. Grimme, Phys. Chem. Chem. Phys.
     2020, 22, 8499-8512. DOI: 10.1039/D0CP00502A
   
   for sTDA-xTB:
   * S. Grimme and C. Bannwarth, J. Chem. Phys., 2016, 145, 054103.
     DOI: 10.1063/1.4959605
   
   in the mass-spec context:
   * V. Asgeirsson, C. Bauer and S. Grimme, Chem. Sci., 2017, 8, 4879.
     DOI: 10.1039/c7sc00601b
   * J. Koopman and S. Grimme, ACS Omega 2019, 4, 12, 15120-15133.
     DOI: 10.1021/acsomega.9b02011
   
   for metadynamics refer to:
   * S. Grimme, J. Chem. Theory Comput., 2019, 155, 2847-2862
     DOI: 10.1021/acs.jctc.9b00143
   
   for SPH calculations refer to:
   * S. Spicher and S. Grimme, J. Chem. Theory Comput., 2021, 17, 1701-1714
     DOI: 10.1021/acs.jctc.0c01306
   
   for ONIOM refer to:
   * C. Plett, A. Katbashev, S. Ehlert, S. Grimme, M. Bursch,
     Phys. Chem. Chem. Phys., 2023, 25, 17860-17868. DOI: 10.1039/D3CP02178E
   
   for DIPRO refer to:
   * J. Kohn, N. Gildemeister, S. Grimme, D. Fazzi, A. Hansen,
     J. Chem. Phys., 2023, just accepted.
   
   for PTB refer to:
   * S. Grimme, M. Mueller, A. Hansen, J. Chem. Phys., 2023, 158, 124111.
     DOI: 10.1063/5.0137838
   
   with help from (in alphabetical order)
   P. Atkinson, C. Bannwarth, F. Bohle, G. Brandenburg, E. Caldeweyher
   M. Checinski, S. Dohm, S. Ehlert, S. Ehrlich, I. Gerasimov, C. Hölzer
   A. Katbashev, J. Kohn, J. Koopman, C. Lavigne, S. Lehtola, F. März, M. Müller,
   F. Musil, H. Neugebauer, J. Pisarek, C. Plett, P. Pracht, F. Pultar,
   J. Seibert, P. Shushkov, S. Spicher, M. Stahn, M. Steiner, T. Strunk,
   J. Stückrath, T. Rose, and J. Unsleber
   
 * started run on 2025/06/25 at 12:06:49.435     
$$$$$$$$$$$$$$$$$$$$$$$$$$$$$$$$$$$$$$$$$$$$$$$$$$$$$$$$$$$$$$$$$$$$$$$$
 CONSTRAINTS & SCANS: DEBUG SECTION
$$$$$$$$$$$$$$$$$$$$$$$$$$$$$$$$$$$$$$$$$$$$$$$$$$$$$$$$$$$$$$$$$$$$$$$$
   ID    Z sym.   atoms
    1    6 C      1, 2, 4, 5, 7, 8
    2    7 N      3, 6
    3    1 H      9-20
$$$$$$$$$$$$$$$$$$$$$$$$$$$$$$$$$$$$$$$$$$$$$$$$$$$$$$$$$$$$$$$$$$$$$$$$

           -------------------------------------------------
          |                Calculation Setup                |
           -------------------------------------------------

          program call               : C:\Users\nkapa\Downloads\xtb-6.7.1pre-windows-x86_64\xtb-6.7.1\bin\xtb.EXE dft_tmp\mol_298.xyz --gfn2 --parallel 8 --verbose
          coordinate file            : dft_tmp\mol_298.xyz
          xtbhome directory          : C:\Users\nkapa\AppData\Roaming\SPB_Data
          path for xtb               : C:\Users\nkapa\Downloads\xtb-6.7.1pre-windows-x86_64\xtb-6.7.1\share\xtb
          xcontrol input file        : dft_tmp\mol_298.xyz
          omp threads                :                     8


           -------------------------------------------------
          |                 G F N 2 - x T B                 |
           -------------------------------------------------

        Reference                      10.1021/acs.jctc.8b01176
      * Hamiltonian:
        H0-scaling (s, p, d)           1.850000    2.230000    2.230000
        zeta-weighting                 0.500000
      * Dispersion:
        s8                             2.700000
        a1                             0.520000
        a2                             5.000000
        s9                             5.000000
      * Repulsion:
        kExp                           1.500000    1.000000
        rExp                           1.000000
      * Coulomb:
        alpha                          2.000000
        third order                    shell-resolved
        anisotropic                    true
        a3                             3.000000
        a5                             4.000000
        cn-shift                       1.200000
        cn-exp                         4.000000
        max-rad                        5.000000


          ...................................................
          :                      SETUP                      :
          :.................................................:
          :  # basis functions                  44          :
          :  # atomic orbitals                  44          :
          :  # shells                           28          :
          :  # electrons                        46          :
          :  max. iterations                   250          :
          :  Hamiltonian                  GFN2-xTB          :
          :  restarted?                      false          :
          :  GBSA solvation                  false          :
          :  PC potential                    false          :
          :  electronic temp.          300.0000000     K    :
          :  accuracy                    1.0000000          :
          :  -> integral cutoff          0.2500000E+02      :
          :  -> integral neglect         0.1000000E-07      :
          :  -> SCF convergence          0.1000000E-05 Eh   :
          :  -> wf. convergence          0.1000000E-03 e    :
          :  Broyden damping             0.4000000          :
          :  net charge                          0          :
          :  unpaired electrons                  0          :
          ...................................................

 iter      E             dE          RMSdq      gap      omega  full diag
   1    -25.0420397 -0.250420E+02  0.261E+00    9.02       0.0  T
   2    -25.0748914 -0.328516E-01  0.162E+00    8.90       1.0  T
   3    -25.0755539 -0.662538E-03  0.712E-01    8.79       1.0  T
   4    -25.0756795 -0.125558E-03  0.708E-02    8.68       1.0  T
   5    -25.0756963 -0.168305E-04  0.412E-02    8.69       1.0  T
   6    -25.0756967 -0.406756E-06  0.126E-03    8.69      17.8  T
   7    -25.0756967 -0.379026E-08  0.538E-04    8.69      41.6  T
   8    -25.0756967 -0.398916E-09  0.294E-05    8.69     759.6  T

   *** convergence criteria satisfied after 8 iterations ***

         #    Occupation            Energy/Eh            Energy/eV
      -------------------------------------------------------------
         1        2.0000           -0.6553946             -17.8342
       ...           ...                  ...                  ...
        17        2.0000           -0.4722231             -12.8498
        18        2.0000           -0.4722228             -12.8498
        19        2.0000           -0.4268315             -11.6147
        20        2.0000           -0.4268313             -11.6147
        21        2.0000           -0.4257757             -11.5859
        22        2.0000           -0.3899736             -10.6117
        23        2.0000           -0.3320673              -9.0360 (HOMO)
        24                         -0.0128523              -0.3497 (LUMO)
        25                          0.0254289               0.6920
        26                          0.0254299               0.6920
        27                          0.0418223               1.1380
        28                          0.0725831               1.9751
       ...                                ...                  ...
        44                          0.2792219               7.5980
      -------------------------------------------------------------
                  HL-Gap            0.3192150 Eh            8.6863 eV
             Fermi-level           -0.1724598 Eh           -4.6929 eV

 SCC (total)                   0 d,  0 h,  0 min,  0.006 sec
 SCC setup                      ...        0 min,  0.000 sec (  0.000%)
 Dispersion                     ...        0 min,  0.000 sec (  0.000%)
 classical contributions        ...        0 min,  0.000 sec (  0.000%)
 integral evaluation            ...        0 min,  0.001 sec ( 16.665%)
 iterations                     ...        0 min,  0.004 sec ( 66.665%)
 molecular gradient             ...        0 min,  0.001 sec ( 16.669%)
 printout                       ...        0 min,  0.000 sec (  0.000%)

         :::::::::::::::::::::::::::::::::::::::::::::::::::::
         ::                     SUMMARY                     ::
         :::::::::::::::::::::::::::::::::::::::::::::::::::::
         :: total energy             -24.816270109359 Eh    ::
         :: gradient norm              0.049427238811 Eh/a0 ::
         :: HOMO-LUMO gap              8.686281039265 eV    ::
         ::.................................................::
         :: HOMO orbital eigv.        -9.036009956390 eV    ::
         :: LUMO orbital eigv.        -0.349728917126 eV    ::
         ::.................................................::
         :: SCC energy               -25.075637280026 Eh    ::
         :: -> isotropic ES            0.011633128981 Eh    ::
         :: -> anisotropic ES          0.008280419820 Eh    ::
         :: -> anisotropic XC          0.020361166106 Eh    ::
         :: -> dispersion             -0.015981245711 Eh    ::
         :: repulsion energy           0.259367170667 Eh    ::
         :: add. restraining           0.000000000000 Eh    ::
         :: total charge               0.000000000000 e     ::
         ::.................................................::
         :: atomisation energy         5.295847314857 Eh    ::
         :::::::::::::::::::::::::::::::::::::::::::::::::::::

           -------------------------------------------------
          |                Property Printout                |
           -------------------------------------------------

    * Orbital Energies and Occupations

         #    Occupation            Energy/Eh            Energy/eV
      -------------------------------------------------------------
         1        2.0000           -0.6553946             -17.8342
       ...           ...                  ...                  ...
        11        2.0000           -0.5241285             -14.2623
        12        2.0000           -0.4861261             -13.2282
        13        2.0000           -0.4829849             -13.1427
        14        2.0000           -0.4829848             -13.1427
        15        2.0000           -0.4817121             -13.1081
        16        2.0000           -0.4817120             -13.1081
        17        2.0000           -0.4722231             -12.8498
        18        2.0000           -0.4722228             -12.8498
        19        2.0000           -0.4268315             -11.6147
        20        2.0000           -0.4268313             -11.6147
        21        2.0000           -0.4257757             -11.5859
        22        2.0000           -0.3899736             -10.6117
        23        2.0000           -0.3320673              -9.0360 (HOMO)
        24                         -0.0128523              -0.3497 (LUMO)
        25                          0.0254289               0.6920
        26                          0.0254299               0.6920
        27                          0.0418223               1.1380
        28                          0.0725831               1.9751
        29                          0.0725842               1.9751
        30                          0.0902465               2.4557
        31                          0.1149153               3.1270
        32                          0.1149155               3.1270
        33                          0.1207969               3.2870
        34                          0.1315105               3.5786
       ...                                ...                  ...
        44                          0.2792219               7.5980
      -------------------------------------------------------------
                  HL-Gap            0.3192150 Eh            8.6863 eV
             Fermi-level           -0.1724598 Eh           -4.6929 eV

     #   Z          covCN         q      C6AA      α(0)
     1   6 C        3.753     0.007    20.517     6.459
     2   6 C        3.753     0.007    20.517     6.459
     3   7 N        2.721    -0.185    25.000     7.426
     4   6 C        3.753     0.007    20.517     6.459
     5   6 C        3.753     0.007    20.517     6.459
     6   7 N        2.721    -0.185    25.000     7.426
     7   6 C        3.753     0.007    20.517     6.459
     8   6 C        3.753     0.007    20.517     6.459
     9   1 H        0.921     0.027     2.626     2.534
    10   1 H        0.921     0.027     2.626     2.534
    11   1 H        0.921     0.027     2.626     2.534
    12   1 H        0.921     0.027     2.626     2.534
    13   1 H        0.921     0.027     2.626     2.534
    14   1 H        0.921     0.027     2.626     2.534
    15   1 H        0.921     0.027     2.626     2.534
    16   1 H        0.921     0.027     2.626     2.534
    17   1 H        0.921     0.027     2.626     2.534
    18   1 H        0.921     0.027     2.626     2.534
    19   1 H        0.921     0.027     2.626     2.534
    20   1 H        0.921     0.027     2.626     2.534

 Mol. C6AA /au·bohr⁶  :       3196.542215
 Mol. C8AA /au·bohr⁸  :      67808.054697
 Mol. α(0) /au        :         84.017484


Wiberg/Mayer (AO) data.
largest (>0.10) Wiberg bond orders for each atom

 ---------------------------------------------------------------------------
     #   Z sym  total        # sym  WBO       # sym  WBO       # sym  WBO
 ---------------------------------------------------------------------------
     1   6 C    3.987 --     6 N    1.001     2 C    0.980    10 H    0.976
                             9 H    0.976
     2   6 C    3.987 --     3 N    1.001     1 C    0.980    12 H    0.976
                            11 H    0.976
     3   7 N    3.108 --     4 C    1.001     2 C    1.001     8 C    1.001
     4   6 C    3.987 --     3 N    1.001     5 C    0.980    13 H    0.976
                            14 H    0.976
     5   6 C    3.987 --     6 N    1.001     4 C    0.980    16 H    0.976
                            15 H    0.976
     6   7 N    3.108 --     1 C    1.001     7 C    1.001     5 C    1.001
     7   6 C    3.987 --     6 N    1.001     8 C    0.980    18 H    0.976
                            17 H    0.976
     8   6 C    3.987 --     3 N    1.001     7 C    0.980    20 H    0.976
                            19 H    0.976
     9   1 H    0.999 --     1 C    0.976
    10   1 H    0.999 --     1 C    0.976
    11   1 H    0.999 --     2 C    0.976
    12   1 H    0.999 --     2 C    0.976
    13   1 H    0.999 --     4 C    0.976
    14   1 H    0.999 --     4 C    0.976
    15   1 H    0.999 --     5 C    0.976
    16   1 H    0.999 --     5 C    0.976
    17   1 H    0.999 --     7 C    0.976
    18   1 H    0.999 --     7 C    0.976
    19   1 H    0.999 --     8 C    0.976
    20   1 H    0.999 --     8 C    0.976
 ---------------------------------------------------------------------------

Topologies differ in total number of bonds
Writing topology from bond orders to xtbtopo.mol

molecular dipole:
                 x           y           z       tot (Debye)
 q only:       -0.000      -0.000       0.000
   full:       -0.000      -0.000       0.000       0.000
molecular quadrupole (traceless):
                xx          xy          yy          xz          yz          zz
 q only:        0.532       2.003      -1.889       0.587      -1.040       1.357
  q+dip:        1.311       4.936      -4.656       1.446      -2.563       3.345
   full:        1.284       4.835      -4.560       1.416      -2.511       3.276


           -------------------------------------------------
          | TOTAL ENERGY              -24.816270109359 Eh   |
          | GRADIENT NORM               0.049427238811 Eh/α |
          | HOMO-LUMO GAP               8.686281039265 eV   |
           -------------------------------------------------
########################################################################
[WARNING] Runtime exception occurred
-2- restart_readRestart: Dimension missmatch in restart file.
-1- restart_readRestart: Number of electron missmatch in restart file.
########################################################################

------------------------------------------------------------------------
 unit  open   action     filename
  129 false : read       dft_tmp\mol_298.xyz
  129 false : read       dft_tmp\mol_298.xyz
  129 false : read       dft_tmp\mol_298.xyz
  129 false : read       C:\Users\nkapa\Downloads\xtb-6.7.1pre-windows-x86_64\xtb-6.7.1\share\xtb\param_gfn2-xtb.txt
  129 false : read       xtbrestart
  129 false : replaced   charges
  129 false : replaced   wbo
  129 false : replaced   xtbtopo.mol
  129 false : replaced   xtbrestart

------------------------------------------------------------------------
 * finished run on 2025/06/25 at 12:06:49.462     
------------------------------------------------------------------------
 total:
 * wall-time:     0 d,  0 h,  0 min,  0.026 sec
 *  cpu-time:     0 d,  0 h,  0 min,  0.141 sec
 * ratio c/w:     5.409 speedup
 SCF:
 * wall-time:     0 d,  0 h,  0 min,  0.006 sec
 *  cpu-time:     0 d,  0 h,  0 min,  0.125 sec
 * ratio c/w:    20.833 speedup

normal termination of xtb
