      -----------------------------------------------------------      
     |                   =====================                   |     
     |                           x T B                           |     
     |                   =====================                   |     
     |                         S. Grimme                         |     
     |          Mulliken Center for Theoretical Chemistry        |     
     |                    University of Bonn                     |     
      -----------------------------------------------------------      

   * xtb version 6.7.1pre (5071a88) compiled by 'Marcel@Raven' on 2024-07-23

   xtb is free software: you can redistribute it and/or modify it under
   the terms of the GNU Lesser General Public License as published by
   the Free Software Foundation, either version 3 of the License, or
   (at your option) any later version.
   
   xtb is distributed in the hope that it will be useful,
   but WITHOUT ANY WARRANTY; without even the implied warranty of
   MERCHANTABILITY or FITNESS FOR A PARTICULAR PURPOSE.  See the
   GNU Lesser General Public License for more details.
   
   Cite this work as:
   * C. Bannwarth, E. Caldeweyher, S. Ehlert, A. Hansen, P. Pracht,
     J. Seibert, S. Spicher, S. Grimme, WIREs Comput. Mol. Sci., 2020, 11,
     e01493. DOI: 10.1002/wcms.1493
   
   for GFN2-xTB:
   * C. Bannwarth, S. Ehlert and S. Grimme., J. Chem. Theory Comput., 2019,
     15, 1652-1671. DOI: 10.1021/acs.jctc.8b01176
   for GFN1-xTB:
   * S. Grimme, C. Bannwarth, P. Shushkov, J. Chem. Theory Comput., 2017,
     13, 1989-2009. DOI: 10.1021/acs.jctc.7b00118
   for GFN0-xTB:
   * P. Pracht, E. Caldeweyher, S. Ehlert, S. Grimme, ChemRxiv, 2019, preprint.
     DOI: 10.26434/chemrxiv.8326202.v1
   for GFN-FF:
   * S. Spicher and S. Grimme, Angew. Chem. Int. Ed., 2020, 59, 15665-15673.
     DOI: 10.1002/anie.202004239
   
   for ALPB and GBSA implicit solvation:
   * S. Ehlert, M. Stahn, S. Spicher, S. Grimme, J. Chem. Theory Comput.,
     2021, 17, 4250-4261. DOI: 10.1021/acs.jctc.1c00471
   
   for ddCOSMO and CPCM-X implicit solvation:
   * M. Stahn, S. Ehlert, S. Grimme, J. Phys. Chem. A,
     2023, XX, XXXX-XXXX. DOI: 10.1021/acs.jpca.3c04382
   
   for DFT-D4:
   * E. Caldeweyher, C. Bannwarth and S. Grimme, J. Chem. Phys., 2017,
     147, 034112. DOI: 10.1063/1.4993215
   * E. Caldeweyher, S. Ehlert, A. Hansen, H. Neugebauer, S. Spicher,
     C. Bannwarth and S. Grimme, J. Chem. Phys., 2019, 150, 154122.
     DOI: 10.1063/1.5090222
   * E. Caldeweyher, J.-M. Mewes, S. Ehlert and S. Grimme, Phys. Chem. Chem. Phys.
     2020, 22, 8499-8512. DOI: 10.1039/D0CP00502A
   
   for sTDA-xTB:
   * S. Grimme and C. Bannwarth, J. Chem. Phys., 2016, 145, 054103.
     DOI: 10.1063/1.4959605
   
   in the mass-spec context:
   * V. Asgeirsson, C. Bauer and S. Grimme, Chem. Sci., 2017, 8, 4879.
     DOI: 10.1039/c7sc00601b
   * J. Koopman and S. Grimme, ACS Omega 2019, 4, 12, 15120-15133.
     DOI: 10.1021/acsomega.9b02011
   
   for metadynamics refer to:
   * S. Grimme, J. Chem. Theory Comput., 2019, 155, 2847-2862
     DOI: 10.1021/acs.jctc.9b00143
   
   for SPH calculations refer to:
   * S. Spicher and S. Grimme, J. Chem. Theory Comput., 2021, 17, 1701-1714
     DOI: 10.1021/acs.jctc.0c01306
   
   for ONIOM refer to:
   * C. Plett, A. Katbashev, S. Ehlert, S. Grimme, M. Bursch,
     Phys. Chem. Chem. Phys., 2023, 25, 17860-17868. DOI: 10.1039/D3CP02178E
   
   for DIPRO refer to:
   * J. Kohn, N. Gildemeister, S. Grimme, D. Fazzi, A. Hansen,
     J. Chem. Phys., 2023, just accepted.
   
   for PTB refer to:
   * S. Grimme, M. Mueller, A. Hansen, J. Chem. Phys., 2023, 158, 124111.
     DOI: 10.1063/5.0137838
   
   with help from (in alphabetical order)
   P. Atkinson, C. Bannwarth, F. Bohle, G. Brandenburg, E. Caldeweyher
   M. Checinski, S. Dohm, S. Ehlert, S. Ehrlich, I. Gerasimov, C. Hölzer
   A. Katbashev, J. Kohn, J. Koopman, C. Lavigne, S. Lehtola, F. März, M. Müller,
   F. Musil, H. Neugebauer, J. Pisarek, C. Plett, P. Pracht, F. Pultar,
   J. Seibert, P. Shushkov, S. Spicher, M. Stahn, M. Steiner, T. Strunk,
   J. Stückrath, T. Rose, and J. Unsleber
   
 * started run on 2025/06/25 at 12:07:11.945     
$$$$$$$$$$$$$$$$$$$$$$$$$$$$$$$$$$$$$$$$$$$$$$$$$$$$$$$$$$$$$$$$$$$$$$$$
 CONSTRAINTS & SCANS: DEBUG SECTION
$$$$$$$$$$$$$$$$$$$$$$$$$$$$$$$$$$$$$$$$$$$$$$$$$$$$$$$$$$$$$$$$$$$$$$$$
   ID    Z sym.   atoms
    1    6 C      1, 3-5, 7, 8
    2    7 N      2, 6
    3    1 H      9-24
$$$$$$$$$$$$$$$$$$$$$$$$$$$$$$$$$$$$$$$$$$$$$$$$$$$$$$$$$$$$$$$$$$$$$$$$

           -------------------------------------------------
          |                Calculation Setup                |
           -------------------------------------------------

          program call               : C:\Users\nkapa\Downloads\xtb-6.7.1pre-windows-x86_64\xtb-6.7.1\bin\xtb.EXE dft_tmp\mol_468.xyz --gfn2 --parallel 8 --verbose
          coordinate file            : dft_tmp\mol_468.xyz
          xtbhome directory          : C:\Users\nkapa\AppData\Roaming\SPB_Data
          path for xtb               : C:\Users\nkapa\Downloads\xtb-6.7.1pre-windows-x86_64\xtb-6.7.1\share\xtb
          xcontrol input file        : dft_tmp\mol_468.xyz
          omp threads                :                     8


           -------------------------------------------------
          |                 G F N 2 - x T B                 |
           -------------------------------------------------

        Reference                      10.1021/acs.jctc.8b01176
      * Hamiltonian:
        H0-scaling (s, p, d)           1.850000    2.230000    2.230000
        zeta-weighting                 0.500000
      * Dispersion:
        s8                             2.700000
        a1                             0.520000
        a2                             5.000000
        s9                             5.000000
      * Repulsion:
        kExp                           1.500000    1.000000
        rExp                           1.000000
      * Coulomb:
        alpha                          2.000000
        third order                    shell-resolved
        anisotropic                    true
        a3                             3.000000
        a5                             4.000000
        cn-shift                       1.200000
        cn-exp                         4.000000
        max-rad                        5.000000


          ...................................................
          :                      SETUP                      :
          :.................................................:
          :  # basis functions                  48          :
          :  # atomic orbitals                  48          :
          :  # shells                           32          :
          :  # electrons                        50          :
          :  max. iterations                   250          :
          :  Hamiltonian                  GFN2-xTB          :
          :  restarted?                      false          :
          :  GBSA solvation                  false          :
          :  PC potential                    false          :
          :  electronic temp.          300.0000000     K    :
          :  accuracy                    1.0000000          :
          :  -> integral cutoff          0.2500000E+02      :
          :  -> integral neglect         0.1000000E-07      :
          :  -> SCF convergence          0.1000000E-05 Eh   :
          :  -> wf. convergence          0.1000000E-03 e    :
          :  Broyden damping             0.4000000          :
          :  net charge                          0          :
          :  unpaired electrons                  0          :
          ...................................................

 iter      E             dE          RMSdq      gap      omega  full diag
   1    -27.0831854 -0.270832E+02  0.277E+00    9.32       0.0  T
   2    -27.1293958 -0.462104E-01  0.162E+00    9.28       1.0  T
   3    -27.1305170 -0.112112E-02  0.771E-01    9.25       1.0  T
   4    -27.1306713 -0.154298E-03  0.803E-02    9.19       1.0  T
   5    -27.1306814 -0.100925E-04  0.439E-02    9.19       1.0  T
   6    -27.1306817 -0.378338E-06  0.338E-03    9.19       6.0  T
   7    -27.1306818 -0.760717E-07  0.128E-03    9.19      16.0  T
   8    -27.1306818 -0.374324E-08  0.227E-04    9.19      89.9  T
   9    -27.1306818 -0.269043E-09  0.852E-05    9.19     239.7  T

   *** convergence criteria satisfied after 9 iterations ***

         #    Occupation            Energy/Eh            Energy/eV
      -------------------------------------------------------------
         1        2.0000           -0.6326543             -17.2154
       ...           ...                  ...                  ...
        19        2.0000           -0.4508701             -12.2688
        20        2.0000           -0.4498151             -12.2401
        21        2.0000           -0.4445917             -12.0980
        22        2.0000           -0.4345324             -11.8242
        23        2.0000           -0.4280324             -11.6474
        24        2.0000           -0.3536341              -9.6229
        25        2.0000           -0.3478945              -9.4667 (HOMO)
        26                         -0.0100389              -0.2732 (LUMO)
        27                          0.0373329               1.0159
        28                          0.0636618               1.7323
        29                          0.0697401               1.8977
        30                          0.0741119               2.0167
       ...                                ...                  ...
        48                          0.2755916               7.4992
      -------------------------------------------------------------
                  HL-Gap            0.3378555 Eh            9.1935 eV
             Fermi-level           -0.1789667 Eh           -4.8699 eV

 SCC (total)                   0 d,  0 h,  0 min,  0.005 sec
 SCC setup                      ...        0 min,  0.000 sec (  0.000%)
 Dispersion                     ...        0 min,  0.001 sec ( 19.999%)
 classical contributions        ...        0 min,  0.000 sec (  0.000%)
 integral evaluation            ...        0 min,  0.000 sec (  0.000%)
 iterations                     ...        0 min,  0.003 sec ( 60.002%)
 molecular gradient             ...        0 min,  0.001 sec ( 19.999%)
 printout                       ...        0 min,  0.000 sec (  0.000%)

         :::::::::::::::::::::::::::::::::::::::::::::::::::::
         ::                     SUMMARY                     ::
         :::::::::::::::::::::::::::::::::::::::::::::::::::::
         :: total energy             -26.833278820365 Eh    ::
         :: gradient norm              0.052400517593 Eh/a0 ::
         :: HOMO-LUMO gap              9.193517138821 eV    ::
         ::.................................................::
         :: HOMO orbital eigv.        -9.466690601637 eV    ::
         :: LUMO orbital eigv.        -0.273173462817 eV    ::
         ::.................................................::
         :: SCC energy               -27.130631114450 Eh    ::
         :: -> isotropic ES            0.011799363433 Eh    ::
         :: -> anisotropic ES          0.010264704433 Eh    ::
         :: -> anisotropic XC          0.024156993798 Eh    ::
         :: -> dispersion             -0.015441070290 Eh    ::
         :: repulsion energy           0.297352294085 Eh    ::
         :: add. restraining           0.000000000000 Eh    ::
         :: total charge               0.000000000000 e     ::
         ::.................................................::
         :: atomisation energy         5.738924970119 Eh    ::
         :::::::::::::::::::::::::::::::::::::::::::::::::::::

           -------------------------------------------------
          |                Property Printout                |
           -------------------------------------------------

    * Orbital Energies and Occupations

         #    Occupation            Energy/Eh            Energy/eV
      -------------------------------------------------------------
         1        2.0000           -0.6326543             -17.2154
       ...           ...                  ...                  ...
        13        2.0000           -0.4977526             -13.5445
        14        2.0000           -0.4933000             -13.4234
        15        2.0000           -0.4819075             -13.1134
        16        2.0000           -0.4691033             -12.7649
        17        2.0000           -0.4681553             -12.7392
        18        2.0000           -0.4594036             -12.5010
        19        2.0000           -0.4508701             -12.2688
        20        2.0000           -0.4498151             -12.2401
        21        2.0000           -0.4445917             -12.0980
        22        2.0000           -0.4345324             -11.8242
        23        2.0000           -0.4280324             -11.6474
        24        2.0000           -0.3536341              -9.6229
        25        2.0000           -0.3478945              -9.4667 (HOMO)
        26                         -0.0100389              -0.2732 (LUMO)
        27                          0.0373329               1.0159
        28                          0.0636618               1.7323
        29                          0.0697401               1.8977
        30                          0.0741119               2.0167
        31                          0.0932257               2.5368
        32                          0.1015268               2.7627
        33                          0.1110391               3.0215
        34                          0.1334144               3.6304
        35                          0.1350892               3.6760
        36                          0.1543436               4.1999
       ...                                ...                  ...
        48                          0.2755916               7.4992
      -------------------------------------------------------------
                  HL-Gap            0.3378555 Eh            9.1935 eV
             Fermi-level           -0.1789667 Eh           -4.8699 eV

     #   Z          covCN         q      C6AA      α(0)
     1   6 C        3.699    -0.029    21.265     6.595
     2   7 N        2.719    -0.178    24.859     7.405
     3   6 C        3.696    -0.028    21.241     6.593
     4   6 C        3.746     0.006    20.543     6.465
     5   6 C        3.746     0.006    20.543     6.465
     6   7 N        2.719    -0.178    24.859     7.405
     7   6 C        3.696    -0.028    21.241     6.593
     8   6 C        3.699    -0.029    21.265     6.595
     9   1 H        0.921     0.014     2.834     2.633
    10   1 H        0.921     0.037     2.484     2.465
    11   1 H        0.921     0.037     2.485     2.465
    12   1 H        0.921     0.013     2.840     2.635
    13   1 H        0.922     0.036     2.510     2.478
    14   1 H        0.921     0.036     2.501     2.473
    15   1 H        0.921     0.046     2.376     2.411
    16   1 H        0.921     0.010     2.883     2.656
    17   1 H        0.921     0.010     2.883     2.656
    18   1 H        0.921     0.046     2.376     2.411
    19   1 H        0.921     0.013     2.840     2.635
    20   1 H        0.922     0.036     2.510     2.478
    21   1 H        0.921     0.036     2.501     2.473
    22   1 H        0.921     0.037     2.485     2.465
    23   1 H        0.921     0.037     2.484     2.465
    24   1 H        0.921     0.014     2.834     2.633

 Mol. C6AA /au·bohr⁶  :       3997.989403
 Mol. C8AA /au·bohr⁸  :      80791.533934
 Mol. α(0) /au        :         94.545571


Wiberg/Mayer (AO) data.
largest (>0.10) Wiberg bond orders for each atom

 ---------------------------------------------------------------------------
     #   Z sym  total        # sym  WBO       # sym  WBO       # sym  WBO
 ---------------------------------------------------------------------------
     1   6 C    3.986 --     2 N    1.013    11 H    0.983    10 H    0.983
                             9 H    0.976
     2   7 N    3.103 --     3 C    1.014     1 C    1.013     4 C    0.999
     3   6 C    3.987 --     2 N    1.014    14 H    0.983    13 H    0.982
                            12 H    0.974
     4   6 C    3.985 --     5 C    0.999     2 N    0.999    15 H    0.972
                            16 H    0.964
     5   6 C    3.985 --     4 C    0.999     6 N    0.999    18 H    0.972
                            17 H    0.964
     6   7 N    3.103 --     7 C    1.014     8 C    1.013     5 C    0.999
     7   6 C    3.987 --     6 N    1.014    21 H    0.983    20 H    0.982
                            19 H    0.974
     8   6 C    3.986 --     6 N    1.013    22 H    0.983    23 H    0.983
                            24 H    0.976
     9   1 H    1.000 --     1 C    0.976
    10   1 H    0.998 --     1 C    0.983
    11   1 H    0.999 --     1 C    0.983
    12   1 H    1.000 --     3 C    0.974
    13   1 H    0.999 --     3 C    0.982
    14   1 H    0.999 --     3 C    0.983
    15   1 H    0.998 --     4 C    0.972
    16   1 H    1.000 --     4 C    0.964
    17   1 H    1.000 --     5 C    0.964
    18   1 H    0.998 --     5 C    0.972
    19   1 H    1.000 --     7 C    0.974
    20   1 H    0.999 --     7 C    0.982
    21   1 H    0.999 --     7 C    0.983
    22   1 H    0.999 --     8 C    0.983
    23   1 H    0.998 --     8 C    0.983
    24   1 H    1.000 --     8 C    0.976
 ---------------------------------------------------------------------------

Topologies differ in total number of bonds
Writing topology from bond orders to xtbtopo.mol

molecular dipole:
                 x           y           z       tot (Debye)
 q only:       -0.002      -0.023       0.039
   full:       -0.020      -0.267       0.454       1.340
molecular quadrupole (traceless):
                xx          xy          yy          xz          yz          zz
 q only:        1.636      -0.402      -0.742      -0.124       0.105      -0.894
  q+dip:        1.913      -1.994      -0.846      -1.045       0.024      -1.067
   full:        2.627      -2.146      -1.157      -1.084       0.095      -1.470


           -------------------------------------------------
          | TOTAL ENERGY              -26.833278820365 Eh   |
          | GRADIENT NORM               0.052400517593 Eh/α |
          | HOMO-LUMO GAP               9.193517138821 eV   |
           -------------------------------------------------
########################################################################
[WARNING] Runtime exception occurred
-2- restart_readRestart: Dimension missmatch in restart file.
-1- restart_readRestart: Number of electron missmatch in restart file.
########################################################################

------------------------------------------------------------------------
 unit  open   action     filename
  129 false : read       dft_tmp\mol_468.xyz
  129 false : read       dft_tmp\mol_468.xyz
  129 false : read       dft_tmp\mol_468.xyz
  129 false : read       C:\Users\nkapa\Downloads\xtb-6.7.1pre-windows-x86_64\xtb-6.7.1\share\xtb\param_gfn2-xtb.txt
  129 false : read       xtbrestart
  129 false : replaced   charges
  129 false : replaced   wbo
  129 false : replaced   xtbtopo.mol
  129 false : replaced   xtbrestart

------------------------------------------------------------------------
 * finished run on 2025/06/25 at 12:07:11.965     
------------------------------------------------------------------------
 total:
 * wall-time:     0 d,  0 h,  0 min,  0.019 sec
 *  cpu-time:     0 d,  0 h,  0 min,  0.125 sec
 * ratio c/w:     6.579 speedup
 SCF:
 * wall-time:     0 d,  0 h,  0 min,  0.005 sec
 *  cpu-time:     0 d,  0 h,  0 min,  0.094 sec
 * ratio c/w:    18.750 speedup

normal termination of xtb
