      -----------------------------------------------------------      
     |                   =====================                   |     
     |                           x T B                           |     
     |                   =====================                   |     
     |                         S. Grimme                         |     
     |          Mulliken Center for Theoretical Chemistry        |     
     |                    University of Bonn                     |     
      -----------------------------------------------------------      

   * xtb version 6.7.1pre (5071a88) compiled by 'Marcel@Raven' on 2024-07-23

   xtb is free software: you can redistribute it and/or modify it under
   the terms of the GNU Lesser General Public License as published by
   the Free Software Foundation, either version 3 of the License, or
   (at your option) any later version.
   
   xtb is distributed in the hope that it will be useful,
   but WITHOUT ANY WARRANTY; without even the implied warranty of
   MERCHANTABILITY or FITNESS FOR A PARTICULAR PURPOSE.  See the
   GNU Lesser General Public License for more details.
   
   Cite this work as:
   * C. Bannwarth, E. Caldeweyher, S. Ehlert, A. Hansen, P. Pracht,
     J. Seibert, S. Spicher, S. Grimme, WIREs Comput. Mol. Sci., 2020, 11,
     e01493. DOI: 10.1002/wcms.1493
   
   for GFN2-xTB:
   * C. Bannwarth, S. Ehlert and S. Grimme., J. Chem. Theory Comput., 2019,
     15, 1652-1671. DOI: 10.1021/acs.jctc.8b01176
   for GFN1-xTB:
   * S. Grimme, C. Bannwarth, P. Shushkov, J. Chem. Theory Comput., 2017,
     13, 1989-2009. DOI: 10.1021/acs.jctc.7b00118
   for GFN0-xTB:
   * P. Pracht, E. Caldeweyher, S. Ehlert, S. Grimme, ChemRxiv, 2019, preprint.
     DOI: 10.26434/chemrxiv.8326202.v1
   for GFN-FF:
   * S. Spicher and S. Grimme, Angew. Chem. Int. Ed., 2020, 59, 15665-15673.
     DOI: 10.1002/anie.202004239
   
   for ALPB and GBSA implicit solvation:
   * S. Ehlert, M. Stahn, S. Spicher, S. Grimme, J. Chem. Theory Comput.,
     2021, 17, 4250-4261. DOI: 10.1021/acs.jctc.1c00471
   
   for ddCOSMO and CPCM-X implicit solvation:
   * M. Stahn, S. Ehlert, S. Grimme, J. Phys. Chem. A,
     2023, XX, XXXX-XXXX. DOI: 10.1021/acs.jpca.3c04382
   
   for DFT-D4:
   * E. Caldeweyher, C. Bannwarth and S. Grimme, J. Chem. Phys., 2017,
     147, 034112. DOI: 10.1063/1.4993215
   * E. Caldeweyher, S. Ehlert, A. Hansen, H. Neugebauer, S. Spicher,
     C. Bannwarth and S. Grimme, J. Chem. Phys., 2019, 150, 154122.
     DOI: 10.1063/1.5090222
   * E. Caldeweyher, J.-M. Mewes, S. Ehlert and S. Grimme, Phys. Chem. Chem. Phys.
     2020, 22, 8499-8512. DOI: 10.1039/D0CP00502A
   
   for sTDA-xTB:
   * S. Grimme and C. Bannwarth, J. Chem. Phys., 2016, 145, 054103.
     DOI: 10.1063/1.4959605
   
   in the mass-spec context:
   * V. Asgeirsson, C. Bauer and S. Grimme, Chem. Sci., 2017, 8, 4879.
     DOI: 10.1039/c7sc00601b
   * J. Koopman and S. Grimme, ACS Omega 2019, 4, 12, 15120-15133.
     DOI: 10.1021/acsomega.9b02011
   
   for metadynamics refer to:
   * S. Grimme, J. Chem. Theory Comput., 2019, 155, 2847-2862
     DOI: 10.1021/acs.jctc.9b00143
   
   for SPH calculations refer to:
   * S. Spicher and S. Grimme, J. Chem. Theory Comput., 2021, 17, 1701-1714
     DOI: 10.1021/acs.jctc.0c01306
   
   for ONIOM refer to:
   * C. Plett, A. Katbashev, S. Ehlert, S. Grimme, M. Bursch,
     Phys. Chem. Chem. Phys., 2023, 25, 17860-17868. DOI: 10.1039/D3CP02178E
   
   for DIPRO refer to:
   * J. Kohn, N. Gildemeister, S. Grimme, D. Fazzi, A. Hansen,
     J. Chem. Phys., 2023, just accepted.
   
   for PTB refer to:
   * S. Grimme, M. Mueller, A. Hansen, J. Chem. Phys., 2023, 158, 124111.
     DOI: 10.1063/5.0137838
   
   with help from (in alphabetical order)
   P. Atkinson, C. Bannwarth, F. Bohle, G. Brandenburg, E. Caldeweyher
   M. Checinski, S. Dohm, S. Ehlert, S. Ehrlich, I. Gerasimov, C. Hölzer
   A. Katbashev, J. Kohn, J. Koopman, C. Lavigne, S. Lehtola, F. März, M. Müller,
   F. Musil, H. Neugebauer, J. Pisarek, C. Plett, P. Pracht, F. Pultar,
   J. Seibert, P. Shushkov, S. Spicher, M. Stahn, M. Steiner, T. Strunk,
   J. Stückrath, T. Rose, and J. Unsleber
   
 * started run on 2025/06/25 at 12:06:39.503     
$$$$$$$$$$$$$$$$$$$$$$$$$$$$$$$$$$$$$$$$$$$$$$$$$$$$$$$$$$$$$$$$$$$$$$$$
 CONSTRAINTS & SCANS: DEBUG SECTION
$$$$$$$$$$$$$$$$$$$$$$$$$$$$$$$$$$$$$$$$$$$$$$$$$$$$$$$$$$$$$$$$$$$$$$$$
   ID    Z sym.   atoms
    1    6 C      1, 2
    2    8 O      3, 4
    3   11 Na     5
    4    1 H      6-8
$$$$$$$$$$$$$$$$$$$$$$$$$$$$$$$$$$$$$$$$$$$$$$$$$$$$$$$$$$$$$$$$$$$$$$$$

           -------------------------------------------------
          |                Calculation Setup                |
           -------------------------------------------------

          program call               : C:\Users\nkapa\Downloads\xtb-6.7.1pre-windows-x86_64\xtb-6.7.1\bin\xtb.EXE dft_tmp\mol_220.xyz --gfn2 --parallel 8 --verbose
          coordinate file            : dft_tmp\mol_220.xyz
          xtbhome directory          : C:\Users\nkapa\AppData\Roaming\SPB_Data
          path for xtb               : C:\Users\nkapa\Downloads\xtb-6.7.1pre-windows-x86_64\xtb-6.7.1\share\xtb
          xcontrol input file        : dft_tmp\mol_220.xyz
          omp threads                :                     8


           -------------------------------------------------
          |                 G F N 2 - x T B                 |
           -------------------------------------------------

        Reference                      10.1021/acs.jctc.8b01176
      * Hamiltonian:
        H0-scaling (s, p, d)           1.850000    2.230000    2.230000
        zeta-weighting                 0.500000
      * Dispersion:
        s8                             2.700000
        a1                             0.520000
        a2                             5.000000
        s9                             5.000000
      * Repulsion:
        kExp                           1.500000    1.000000
        rExp                           1.000000
      * Coulomb:
        alpha                          2.000000
        third order                    shell-resolved
        anisotropic                    true
        a3                             3.000000
        a5                             4.000000
        cn-shift                       1.200000
        cn-exp                         4.000000
        max-rad                        5.000000


          ...................................................
          :                      SETUP                      :
          :.................................................:
          :  # basis functions                  23          :
          :  # atomic orbitals                  23          :
          :  # shells                           13          :
          :  # electrons                        24          :
          :  max. iterations                   250          :
          :  Hamiltonian                  GFN2-xTB          :
          :  restarted?                      false          :
          :  GBSA solvation                  false          :
          :  PC potential                    false          :
          :  electronic temp.          300.0000000     K    :
          :  accuracy                    1.0000000          :
          :  -> integral cutoff          0.2500000E+02      :
          :  -> integral neglect         0.1000000E-07      :
          :  -> SCF convergence          0.1000000E-05 Eh   :
          :  -> wf. convergence          0.1000000E-03 e    :
          :  Broyden damping             0.4000000          :
          :  net charge                          0          :
          :  unpaired electrons                  0          :
          ...................................................

 iter      E             dE          RMSdq      gap      omega  full diag
   1    -14.0726245 -0.140726E+02  0.761E+00    6.00       0.0  T
   2    -14.2767312 -0.204107E+00  0.477E+00    3.38       1.0  T
   3    -14.3025655 -0.258342E-01  0.270E+00    4.15       1.0  T
   4    -14.3012580  0.130743E-02  0.782E-01    3.61       1.0  T
   5    -14.3045133 -0.325527E-02  0.214E-01    3.93       1.0  T
   6    -14.3045889 -0.755836E-04  0.989E-02    3.93       1.0  T
   7    -14.3045983 -0.944425E-05  0.379E-02    3.93       1.0  T
   8    -14.3045992 -0.865850E-06  0.310E-03    3.92      11.4  T
   9    -14.3045992 -0.114769E-07  0.972E-04    3.92      36.4  T
  10    -14.3045992 -0.182348E-09  0.182E-04    3.92     194.7  T

   *** convergence criteria satisfied after 10 iterations ***

         #    Occupation            Energy/Eh            Energy/eV
      -------------------------------------------------------------
         1        2.0000           -0.7056257             -19.2011
       ...           ...                  ...                  ...
         6        2.0000           -0.5592112             -15.2169
         7        2.0000           -0.5491545             -14.9433
         8        2.0000           -0.5107434             -13.8980
         9        2.0000           -0.5033971             -13.6981
        10        2.0000           -0.4161655             -11.3244
        11        2.0000           -0.4087054             -11.1214
        12        2.0000           -0.3928706             -10.6906 (HOMO)
        13                         -0.2486938              -6.7673 (LUMO)
        14                         -0.2140107              -5.8235
        15                         -0.0615932              -1.6760
        16                         -0.0097376              -0.2650
        17                          0.0594861               1.6187
       ...                                ...                  ...
        23                          0.4619644              12.5707
      -------------------------------------------------------------
                  HL-Gap            0.1441768 Eh            3.9233 eV
             Fermi-level           -0.3207822 Eh           -8.7289 eV

 SCC (total)                   0 d,  0 h,  0 min,  0.004 sec
 SCC setup                      ...        0 min,  0.001 sec ( 24.999%)
 Dispersion                     ...        0 min,  0.000 sec (  0.000%)
 classical contributions        ...        0 min,  0.000 sec (  0.000%)
 integral evaluation            ...        0 min,  0.000 sec (  0.000%)
 iterations                     ...        0 min,  0.002 sec ( 50.003%)
 molecular gradient             ...        0 min,  0.001 sec ( 24.999%)
 printout                       ...        0 min,  0.000 sec (  0.000%)

         :::::::::::::::::::::::::::::::::::::::::::::::::::::
         ::                     SUMMARY                     ::
         :::::::::::::::::::::::::::::::::::::::::::::::::::::
         :: total energy              -6.098199600500 Eh    ::
         :: gradient norm             14.521362140289 Eh/a0 ::
         :: HOMO-LUMO gap              3.923251113145 eV    ::
         ::.................................................::
         :: HOMO orbital eigv.       -10.690554091784 eV    ::
         :: LUMO orbital eigv.        -6.767302978638 eV    ::
         ::.................................................::
         :: SCC energy               -14.304598934925 Eh    ::
         :: -> isotropic ES            0.118019748134 Eh    ::
         :: -> anisotropic ES          0.005345278037 Eh    ::
         :: -> anisotropic XC          0.001611068664 Eh    ::
         :: -> dispersion             -0.003112130375 Eh    ::
         :: repulsion energy           8.206399334424 Eh    ::
         :: add. restraining           0.000000000000 Eh    ::
         :: total charge               0.000000000000 e     ::
         ::.................................................::
         :: atomisation energy        -6.026689977658 Eh    ::
         :::::::::::::::::::::::::::::::::::::::::::::::::::::

           -------------------------------------------------
          |                Property Printout                |
           -------------------------------------------------

    * Orbital Energies and Occupations

         #    Occupation            Energy/Eh            Energy/eV
      -------------------------------------------------------------
         1        2.0000           -0.7056257             -19.2011
         2        2.0000           -0.6754671             -18.3804
         3        2.0000           -0.6587066             -17.9243
         4        2.0000           -0.5981747             -16.2772
         5        2.0000           -0.5751956             -15.6519
         6        2.0000           -0.5592112             -15.2169
         7        2.0000           -0.5491545             -14.9433
         8        2.0000           -0.5107434             -13.8980
         9        2.0000           -0.5033971             -13.6981
        10        2.0000           -0.4161655             -11.3244
        11        2.0000           -0.4087054             -11.1214
        12        2.0000           -0.3928706             -10.6906 (HOMO)
        13                         -0.2486938              -6.7673 (LUMO)
        14                         -0.2140107              -5.8235
        15                         -0.0615932              -1.6760
        16                         -0.0097376              -0.2650
        17                          0.0594861               1.6187
        18                          0.1035794               2.8185
        19                          0.1835529               4.9947
        20                          0.1913378               5.2066
        21                          0.2527414               6.8774
        22                          0.3557134               9.6795
        23                          0.4619644              12.5707
      -------------------------------------------------------------
                  HL-Gap            0.1441768 Eh            3.9233 eV
             Fermi-level           -0.3207822 Eh           -8.7289 eV

     #   Z          covCN         q      C6AA      α(0)
     1   6 C        4.504    -0.436    30.059     7.786
     2   6 C        3.446     0.134    20.706     6.894
     3   8 O        1.513    -0.422    21.401     6.239
     4   8 O        1.508    -0.509    23.209     6.497
     5  11 Na       5.252     0.904    10.695     5.996
     6   1 H        1.727     0.109     1.694     2.032
     7   1 H        1.727     0.111     1.677     2.022
     8   1 H        1.727     0.109     1.693     2.031

 Mol. C6AA /au·bohr⁶  :        703.645839
 Mol. C8AA /au·bohr⁸  :      21431.365016
 Mol. α(0) /au        :         39.497771


Wiberg/Mayer (AO) data.
largest (>0.10) Wiberg bond orders for each atom

 ---------------------------------------------------------------------------
     #   Z sym  total        # sym  WBO       # sym  WBO       # sym  WBO
 ---------------------------------------------------------------------------
     1   6 C    3.955 --     7 H    0.985     6 H    0.981     2 C    0.979
                             8 H    0.971
     2   6 C    3.977 --     3 O    1.587     4 O    1.416     1 C    0.979
     3   8 O    2.046 --     2 C    1.587     4 O    0.264     5 Na   0.125
     4   8 O    1.895 --     2 C    1.416     3 O    0.264     5 Na   0.151
     5  11 Na   0.188 --     4 O    0.151     3 O    0.125
     6   1 H    0.988 --     1 C    0.981
     7   1 H    0.988 --     1 C    0.985
     8   1 H    0.988 --     1 C    0.971
 ---------------------------------------------------------------------------

Topologies differ in total number of bonds
Writing topology from bond orders to xtbtopo.mol

molecular dipole:
                 x           y           z       tot (Debye)
 q only:       -2.464      -0.375      -0.417
   full:       -3.083      -0.439      -0.525       8.027
molecular quadrupole (traceless):
                xx          xy          yy          xz          yz          zz
 q only:       -4.511      -1.797      -0.429      -1.655       1.510       4.940
  q+dip:       -5.457      -1.904      -0.792      -2.207       2.092       6.250
   full:       -5.874      -2.109      -1.720      -2.592       2.848       7.594


           -------------------------------------------------
          | TOTAL ENERGY               -6.098199600500 Eh   |
          | GRADIENT NORM              14.521362140289 Eh/α |
          | HOMO-LUMO GAP               3.923251113145 eV   |
           -------------------------------------------------
########################################################################
[WARNING] Runtime exception occurred
-2- restart_readRestart: Dimension missmatch in restart file.
-1- restart_readRestart: Number of electron missmatch in restart file.
########################################################################

------------------------------------------------------------------------
 unit  open   action     filename
  129 false : read       dft_tmp\mol_220.xyz
  129 false : read       dft_tmp\mol_220.xyz
  129 false : read       dft_tmp\mol_220.xyz
  129 false : read       C:\Users\nkapa\Downloads\xtb-6.7.1pre-windows-x86_64\xtb-6.7.1\share\xtb\param_gfn2-xtb.txt
  129 false : read       xtbrestart
  129 false : replaced   charges
  129 false : replaced   wbo
  129 false : replaced   xtbtopo.mol
  129 false : replaced   xtbrestart

------------------------------------------------------------------------
 * finished run on 2025/06/25 at 12:06:39.560     
------------------------------------------------------------------------
 total:
 * wall-time:     0 d,  0 h,  0 min,  0.056 sec
 *  cpu-time:     0 d,  0 h,  0 min,  0.078 sec
 * ratio c/w:     1.395 speedup
 SCF:
 * wall-time:     0 d,  0 h,  0 min,  0.004 sec
 *  cpu-time:     0 d,  0 h,  0 min,  0.000 sec
 * ratio c/w:     0.000 speedup

normal termination of xtb
