      -----------------------------------------------------------      
     |                   =====================                   |     
     |                           x T B                           |     
     |                   =====================                   |     
     |                         S. Grimme                         |     
     |          Mulliken Center for Theoretical Chemistry        |     
     |                    University of Bonn                     |     
      -----------------------------------------------------------      

   * xtb version 6.7.1pre (5071a88) compiled by 'Marcel@Raven' on 2024-07-23

   xtb is free software: you can redistribute it and/or modify it under
   the terms of the GNU Lesser General Public License as published by
   the Free Software Foundation, either version 3 of the License, or
   (at your option) any later version.
   
   xtb is distributed in the hope that it will be useful,
   but WITHOUT ANY WARRANTY; without even the implied warranty of
   MERCHANTABILITY or FITNESS FOR A PARTICULAR PURPOSE.  See the
   GNU Lesser General Public License for more details.
   
   Cite this work as:
   * C. Bannwarth, E. Caldeweyher, S. Ehlert, A. Hansen, P. Pracht,
     J. Seibert, S. Spicher, S. Grimme, WIREs Comput. Mol. Sci., 2020, 11,
     e01493. DOI: 10.1002/wcms.1493
   
   for GFN2-xTB:
   * C. Bannwarth, S. Ehlert and S. Grimme., J. Chem. Theory Comput., 2019,
     15, 1652-1671. DOI: 10.1021/acs.jctc.8b01176
   for GFN1-xTB:
   * S. Grimme, C. Bannwarth, P. Shushkov, J. Chem. Theory Comput., 2017,
     13, 1989-2009. DOI: 10.1021/acs.jctc.7b00118
   for GFN0-xTB:
   * P. Pracht, E. Caldeweyher, S. Ehlert, S. Grimme, ChemRxiv, 2019, preprint.
     DOI: 10.26434/chemrxiv.8326202.v1
   for GFN-FF:
   * S. Spicher and S. Grimme, Angew. Chem. Int. Ed., 2020, 59, 15665-15673.
     DOI: 10.1002/anie.202004239
   
   for ALPB and GBSA implicit solvation:
   * S. Ehlert, M. Stahn, S. Spicher, S. Grimme, J. Chem. Theory Comput.,
     2021, 17, 4250-4261. DOI: 10.1021/acs.jctc.1c00471
   
   for ddCOSMO and CPCM-X implicit solvation:
   * M. Stahn, S. Ehlert, S. Grimme, J. Phys. Chem. A,
     2023, XX, XXXX-XXXX. DOI: 10.1021/acs.jpca.3c04382
   
   for DFT-D4:
   * E. Caldeweyher, C. Bannwarth and S. Grimme, J. Chem. Phys., 2017,
     147, 034112. DOI: 10.1063/1.4993215
   * E. Caldeweyher, S. Ehlert, A. Hansen, H. Neugebauer, S. Spicher,
     C. Bannwarth and S. Grimme, J. Chem. Phys., 2019, 150, 154122.
     DOI: 10.1063/1.5090222
   * E. Caldeweyher, J.-M. Mewes, S. Ehlert and S. Grimme, Phys. Chem. Chem. Phys.
     2020, 22, 8499-8512. DOI: 10.1039/D0CP00502A
   
   for sTDA-xTB:
   * S. Grimme and C. Bannwarth, J. Chem. Phys., 2016, 145, 054103.
     DOI: 10.1063/1.4959605
   
   in the mass-spec context:
   * V. Asgeirsson, C. Bauer and S. Grimme, Chem. Sci., 2017, 8, 4879.
     DOI: 10.1039/c7sc00601b
   * J. Koopman and S. Grimme, ACS Omega 2019, 4, 12, 15120-15133.
     DOI: 10.1021/acsomega.9b02011
   
   for metadynamics refer to:
   * S. Grimme, J. Chem. Theory Comput., 2019, 155, 2847-2862
     DOI: 10.1021/acs.jctc.9b00143
   
   for SPH calculations refer to:
   * S. Spicher and S. Grimme, J. Chem. Theory Comput., 2021, 17, 1701-1714
     DOI: 10.1021/acs.jctc.0c01306
   
   for ONIOM refer to:
   * C. Plett, A. Katbashev, S. Ehlert, S. Grimme, M. Bursch,
     Phys. Chem. Chem. Phys., 2023, 25, 17860-17868. DOI: 10.1039/D3CP02178E
   
   for DIPRO refer to:
   * J. Kohn, N. Gildemeister, S. Grimme, D. Fazzi, A. Hansen,
     J. Chem. Phys., 2023, just accepted.
   
   for PTB refer to:
   * S. Grimme, M. Mueller, A. Hansen, J. Chem. Phys., 2023, 158, 124111.
     DOI: 10.1063/5.0137838
   
   with help from (in alphabetical order)
   P. Atkinson, C. Bannwarth, F. Bohle, G. Brandenburg, E. Caldeweyher
   M. Checinski, S. Dohm, S. Ehlert, S. Ehrlich, I. Gerasimov, C. Hölzer
   A. Katbashev, J. Kohn, J. Koopman, C. Lavigne, S. Lehtola, F. März, M. Müller,
   F. Musil, H. Neugebauer, J. Pisarek, C. Plett, P. Pracht, F. Pultar,
   J. Seibert, P. Shushkov, S. Spicher, M. Stahn, M. Steiner, T. Strunk,
   J. Stückrath, T. Rose, and J. Unsleber
   
 * started run on 2025/06/25 at 12:06:37.824     
$$$$$$$$$$$$$$$$$$$$$$$$$$$$$$$$$$$$$$$$$$$$$$$$$$$$$$$$$$$$$$$$$$$$$$$$
 CONSTRAINTS & SCANS: DEBUG SECTION
$$$$$$$$$$$$$$$$$$$$$$$$$$$$$$$$$$$$$$$$$$$$$$$$$$$$$$$$$$$$$$$$$$$$$$$$
   ID    Z sym.   atoms
    1    6 C      1-7
    2   16 S      8
    3    8 O      9-11
    4   11 Na     12
    5    1 H      13-19
$$$$$$$$$$$$$$$$$$$$$$$$$$$$$$$$$$$$$$$$$$$$$$$$$$$$$$$$$$$$$$$$$$$$$$$$

           -------------------------------------------------
          |                Calculation Setup                |
           -------------------------------------------------

          program call               : C:\Users\nkapa\Downloads\xtb-6.7.1pre-windows-x86_64\xtb-6.7.1\bin\xtb.EXE dft_tmp\mol_208.xyz --gfn2 --parallel 8 --verbose
          coordinate file            : dft_tmp\mol_208.xyz
          xtbhome directory          : C:\Users\nkapa\AppData\Roaming\SPB_Data
          path for xtb               : C:\Users\nkapa\Downloads\xtb-6.7.1pre-windows-x86_64\xtb-6.7.1\share\xtb
          xcontrol input file        : dft_tmp\mol_208.xyz
          omp threads                :                     8


molecular fragmentation (1/2 indicates fragments):
1111111111111121111
# atoms in fragment 1/2:    18     1
 fragment masses (1/2) :      193.18        1.01
CMA distance (Bohr)    :   8.809
constraining FC (au)   :  0.0500

           -------------------------------------------------
          |                 G F N 2 - x T B                 |
           -------------------------------------------------

        Reference                      10.1021/acs.jctc.8b01176
      * Hamiltonian:
        H0-scaling (s, p, d)           1.850000    2.230000    2.230000
        zeta-weighting                 0.500000
      * Dispersion:
        s8                             2.700000
        a1                             0.520000
        a2                             5.000000
        s9                             5.000000
      * Repulsion:
        kExp                           1.500000    1.000000
        rExp                           1.000000
      * Coulomb:
        alpha                          2.000000
        third order                    shell-resolved
        anisotropic                    true
        a3                             3.000000
        a5                             4.000000
        cn-shift                       1.200000
        cn-exp                         4.000000
        max-rad                        5.000000


          ...................................................
          :                      SETUP                      :
          :.................................................:
          :  # basis functions                  61          :
          :  # atomic orbitals                  60          :
          :  # shells                           32          :
          :  # electrons                        60          :
          :  max. iterations                   250          :
          :  Hamiltonian                  GFN2-xTB          :
          :  restarted?                      false          :
          :  GBSA solvation                  false          :
          :  PC potential                    false          :
          :  electronic temp.          300.0000000     K    :
          :  accuracy                    1.0000000          :
          :  -> integral cutoff          0.2500000E+02      :
          :  -> integral neglect         0.1000000E-07      :
          :  -> SCF convergence          0.1000000E-05 Eh   :
          :  -> wf. convergence          0.1000000E-03 e    :
          :  Broyden damping             0.4000000          :
          :  net charge                          0          :
          :  unpaired electrons                  0          :
          ...................................................

 iter      E             dE          RMSdq      gap      omega  full diag
   1    -34.3493466 -0.343493E+02  0.971E+00    4.38       0.0  T
   2    -34.5582696 -0.208923E+00  0.440E+00    0.66       1.0  T
   3    -34.5720518 -0.137822E-01  0.242E+00    0.96       1.0  T
   4    -34.5183559  0.536959E-01  0.171E+00    0.22       1.0  T
   5    -34.5736696 -0.553138E-01  0.904E-01    1.27       1.0  T
   6    -34.5800524 -0.638278E-02  0.368E-01    0.79       1.0  T
   7    -34.5810619 -0.100946E-02  0.175E-01    0.66       1.0  T
   8    -34.5810663 -0.447750E-05  0.102E-01    0.62       1.0  T
   9    -34.5811369 -0.705271E-04  0.598E-02    0.62       1.0  T
  10    -34.5811547 -0.177970E-04  0.185E-02    0.63       1.2  T
  11    -34.5811560 -0.128433E-05  0.115E-02    0.63       2.0  T
  12    -34.5811573 -0.138125E-05  0.464E-03    0.64       4.9  T
  13    -34.5811574 -0.330750E-07  0.324E-03    0.64       7.1  T
  14    -34.5811576 -0.188642E-06  0.983E-04    0.64      23.3  T
  15    -34.5811576 -0.137932E-07  0.302E-04    0.64      75.9  T

   *** convergence criteria satisfied after 15 iterations ***

         #    Occupation            Energy/Eh            Energy/eV
      -------------------------------------------------------------
         1        2.0000           -0.7442459             -20.2520
       ...           ...                  ...                  ...
        24        2.0000           -0.4501933             -12.2504
        25        2.0000           -0.3997202             -10.8769
        26        2.0000           -0.3943272             -10.7302
        27        2.0000           -0.3819437             -10.3932
        28        2.0000           -0.3723852             -10.1331
        29        2.0000           -0.3586791              -9.7602
        30        2.0000           -0.3518200              -9.5735 (HOMO)
        31        0.0000           -0.3282817              -8.9330 (LUMO)
        32        0.0000           -0.3243353              -8.8256
        33                         -0.2075122              -5.6467
        34                         -0.1369383              -3.7263
        35                         -0.1313569              -3.5744
       ...                                ...                  ...
        60                          1.0329861              28.1090
      -------------------------------------------------------------
                  HL-Gap            0.0235384 Eh            0.6405 eV
             Fermi-level           -0.3400579 Eh           -9.2534 eV

 SCC (total)                   0 d,  0 h,  0 min,  0.013 sec
 SCC setup                      ...        0 min,  0.000 sec (  0.000%)
 Dispersion                     ...        0 min,  0.000 sec (  0.000%)
 classical contributions        ...        0 min,  0.000 sec (  0.000%)
 integral evaluation            ...        0 min,  0.002 sec ( 15.384%)
 iterations                     ...        0 min,  0.010 sec ( 76.924%)
 molecular gradient             ...        0 min,  0.001 sec (  7.692%)
 printout                       ...        0 min,  0.000 sec (  0.000%)

         :::::::::::::::::::::::::::::::::::::::::::::::::::::
         ::                     SUMMARY                     ::
         :::::::::::::::::::::::::::::::::::::::::::::::::::::
         :: total energy             -32.865055758896 Eh    ::
         :: gradient norm              1.447192571915 Eh/a0 ::
         :: HOMO-LUMO gap              0.640512105945 eV    ::
         ::.................................................::
         :: HOMO orbital eigv.        -9.573510682797 eV    ::
         :: LUMO orbital eigv.        -8.932998576852 eV    ::
         ::.................................................::
         :: SCC energy               -34.581148936432 Eh    ::
         :: -> isotropic ES            0.203407054084 Eh    ::
         :: -> anisotropic ES         -0.017594939121 Eh    ::
         :: -> anisotropic XC          0.010808359217 Eh    ::
         :: -> dispersion             -0.016656759734 Eh    ::
         :: repulsion energy           1.716093177536 Eh    ::
         :: add. restraining           0.000000000000 Eh    ::
         :: total charge              -0.000000000002 e     ::
         ::.................................................::
         :: atomisation energy         4.141402274745 Eh    ::
         :::::::::::::::::::::::::::::::::::::::::::::::::::::

           -------------------------------------------------
          |                Property Printout                |
           -------------------------------------------------

    * Orbital Energies and Occupations

         #    Occupation            Energy/Eh            Energy/eV
      -------------------------------------------------------------
         1        2.0000           -0.7442459             -20.2520
       ...           ...                  ...                  ...
        18        2.0000           -0.5329703             -14.5029
        19        2.0000           -0.5075812             -13.8120
        20        2.0000           -0.5057804             -13.7630
        21        2.0000           -0.4918759             -13.3846
        22        2.0000           -0.4811779             -13.0935
        23        2.0000           -0.4561921             -12.4136
        24        2.0000           -0.4501933             -12.2504
        25        2.0000           -0.3997202             -10.8769
        26        2.0000           -0.3943272             -10.7302
        27        2.0000           -0.3819437             -10.3932
        28        2.0000           -0.3723852             -10.1331
        29        2.0000           -0.3586791              -9.7602
        30        2.0000           -0.3518200              -9.5735 (HOMO)
        31        0.0000           -0.3282817              -8.9330 (LUMO)
        32        0.0000           -0.3243353              -8.8256
        33                         -0.2075122              -5.6467
        34                         -0.1369383              -3.7263
        35                         -0.1313569              -3.5744
        36                         -0.0483451              -1.3155
        37                         -0.0316340              -0.8608
        38                         -0.0276911              -0.7535
        39                         -0.0164733              -0.4483
        40                         -0.0008326              -0.0227
        41                          0.0067099               0.1826
       ...                                ...                  ...
        60                          1.0329861              28.1090
      -------------------------------------------------------------
                  HL-Gap            0.0235384 Eh            0.6405 eV
             Fermi-level           -0.3400579 Eh           -9.2534 eV

     #   Z          covCN         q      C6AA      α(0)
     1   6 C        3.994    -0.123    22.765     6.778
     2   6 C        3.721    -0.088    22.307     6.746
     3   6 C        3.674    -0.163    23.922     7.009
     4   6 C        3.711    -0.159    23.729     6.961
     5   6 C        3.718    -0.213    24.864     7.123
     6   6 C        3.711    -0.162    23.803     6.972
     7   6 C        3.674    -0.165    23.982     7.018
     8  16 S        4.144     1.169   101.945    16.994
     9   8 O        0.859    -0.615    26.480     6.899
    10   8 O        0.859    -0.615    26.482     6.900
    11   8 O        0.854    -0.665    27.765     7.065
    12  11 Na       5.962     1.045    10.431     5.922
    13   1 H        0.921     0.075     2.032     2.229
    14   1 H        0.922     0.085     1.927     2.171
    15   1 H        0.921     0.075     2.034     2.230
    16   1 H        1.034     0.119     1.611     1.983
    17   1 H        1.115     0.140     1.454     1.883
    18   1 H        1.135     0.141     1.448     1.879
    19   1 H        1.047     0.120     1.606     1.979

 Mol. C6AA /au·bohr⁶  :       5156.998081
 Mol. C8AA /au·bohr⁸  :     152503.272335
 Mol. α(0) /au        :        106.741648


Wiberg/Mayer (AO) data.
largest (>0.10) Wiberg bond orders for each atom

 ---------------------------------------------------------------------------
     #   Z sym  total        # sym  WBO       # sym  WBO       # sym  WBO
 ---------------------------------------------------------------------------
     1   6 C    3.985 --     2 C    1.039    13 H    0.975    15 H    0.975
                            14 H    0.953
     2   6 C    3.948 --     7 C    1.399     3 C    1.398     1 C    1.039
     3   6 C    3.980 --     4 C    1.468     2 C    1.398    16 H    0.945
                             6 C    0.104
     4   6 C    3.976 --     3 C    1.468     5 C    1.408    17 H    0.946
                             7 C    0.104
     5   6 C    3.946 --     6 C    1.409     4 C    1.408     8 S    0.764
                            11 O    0.126
     6   6 C    3.976 --     7 C    1.468     5 C    1.409    18 H    0.946
                             3 C    0.104
     7   6 C    3.980 --     6 C    1.468     2 C    1.399    19 H    0.945
                             4 C    0.104
     8  16 S    4.893 --     9 O    1.482    10 O    1.482    11 O    1.215
                             5 C    0.764
     9   8 O    1.836 --     8 S    1.482    11 O    0.120    10 O    0.110
    10   8 O    1.836 --     8 S    1.482    11 O    0.120     9 O    0.110
    11   8 O    1.678 --     8 S    1.215     5 C    0.126     9 O    0.120
                            10 O    0.120
    12  11 Na  -0.094
    13   1 H    0.994 --     1 C    0.975
    14   1 H    0.990 --     1 C    0.953
    15   1 H    0.994 --     1 C    0.975
    16   1 H    0.985 --     3 C    0.945
    17   1 H    0.980 --     4 C    0.946
    18   1 H    0.980 --     6 C    0.946
    19   1 H    0.985 --     7 C    0.945
 ---------------------------------------------------------------------------

Topologies differ in total number of bonds
Writing topology from bond orders to xtbtopo.mol

molecular dipole:
                 x           y           z       tot (Debye)
 q only:        7.002       0.381       0.982
   full:        7.243       0.405       0.999      18.611
molecular quadrupole (traceless):
                xx          xy          yy          xz          yz          zz
 q only:      -37.718      -3.519      22.104      -8.258       3.723      15.614
  q+dip:      -42.451      -4.604      25.848      -8.591       5.829      16.604
   full:      -41.943      -4.223      24.265      -8.529       3.815      17.679


           -------------------------------------------------
          | TOTAL ENERGY              -32.865055758896 Eh   |
          | GRADIENT NORM               1.447192571915 Eh/α |
          | HOMO-LUMO GAP               0.640512105945 eV   |
           -------------------------------------------------
########################################################################
[WARNING] Runtime exception occurred
-2- restart_readRestart: Dimension missmatch in restart file.
-1- restart_readRestart: Number of electron missmatch in restart file.
########################################################################

------------------------------------------------------------------------
 unit  open   action     filename
  129 false : read       dft_tmp\mol_208.xyz
  129 false : read       dft_tmp\mol_208.xyz
  129 false : read       dft_tmp\mol_208.xyz
  129 false : read       C:\Users\nkapa\Downloads\xtb-6.7.1pre-windows-x86_64\xtb-6.7.1\share\xtb\param_gfn2-xtb.txt
  129 false : read       xtbrestart
  129 false : replaced   charges
  129 false : replaced   wbo
  129 false : replaced   xtbtopo.mol
  129 false : replaced   xtbrestart

------------------------------------------------------------------------
 * finished run on 2025/06/25 at 12:06:37.875     
------------------------------------------------------------------------
 total:
 * wall-time:     0 d,  0 h,  0 min,  0.051 sec
 *  cpu-time:     0 d,  0 h,  0 min,  0.125 sec
 * ratio c/w:     2.451 speedup
 SCF:
 * wall-time:     0 d,  0 h,  0 min,  0.014 sec
 *  cpu-time:     0 d,  0 h,  0 min,  0.125 sec
 * ratio c/w:     8.929 speedup

normal termination of xtb
