26

C -3.101700 0.483002 0.195398
C -1.940886 -0.521517 0.161443
C -0.572572 0.172411 -0.064755
C 0.592470 -0.849383 -0.011364
C 1.916529 -0.296079 -0.609247
C 2.570178 0.817478 0.232047
O 3.815644 1.152109 -0.315765
O 2.825236 -1.349697 -0.819013
O 0.784907 -1.278197 1.315122
O -0.377157 1.153102 0.924945
O -2.186485 -1.447950 -0.868700
O -3.175902 1.187151 -1.014189
H -4.052490 -0.071777 0.360723
H -2.970251 1.192518 1.042547
H -1.921590 -1.031497 1.155446
H -0.580754 0.636352 -1.080743
H 0.307177 -1.718811 -0.649927
H 1.688268 0.133849 -1.609136
H 1.925431 1.721799 0.227112
H 2.706554 0.474465 1.281944
H 4.194424 1.858334 0.269849
H 3.117351 -1.679284 0.070789
H 1.098602 -2.219305 1.278647
H -0.673355 2.020724 0.543630
H -2.052423 -2.356490 -0.491358
H -3.937207 1.816694 -0.919867
