      -----------------------------------------------------------      
     |                   =====================                   |     
     |                           x T B                           |     
     |                   =====================                   |     
     |                         S. Grimme                         |     
     |          Mulliken Center for Theoretical Chemistry        |     
     |                    University of Bonn                     |     
      -----------------------------------------------------------      

   * xtb version 6.7.1pre (5071a88) compiled by 'Marcel@Raven' on 2024-07-23

   xtb is free software: you can redistribute it and/or modify it under
   the terms of the GNU Lesser General Public License as published by
   the Free Software Foundation, either version 3 of the License, or
   (at your option) any later version.
   
   xtb is distributed in the hope that it will be useful,
   but WITHOUT ANY WARRANTY; without even the implied warranty of
   MERCHANTABILITY or FITNESS FOR A PARTICULAR PURPOSE.  See the
   GNU Lesser General Public License for more details.
   
   Cite this work as:
   * C. Bannwarth, E. Caldeweyher, S. Ehlert, A. Hansen, P. Pracht,
     J. Seibert, S. Spicher, S. Grimme, WIREs Comput. Mol. Sci., 2020, 11,
     e01493. DOI: 10.1002/wcms.1493
   
   for GFN2-xTB:
   * C. Bannwarth, S. Ehlert and S. Grimme., J. Chem. Theory Comput., 2019,
     15, 1652-1671. DOI: 10.1021/acs.jctc.8b01176
   for GFN1-xTB:
   * S. Grimme, C. Bannwarth, P. Shushkov, J. Chem. Theory Comput., 2017,
     13, 1989-2009. DOI: 10.1021/acs.jctc.7b00118
   for GFN0-xTB:
   * P. Pracht, E. Caldeweyher, S. Ehlert, S. Grimme, ChemRxiv, 2019, preprint.
     DOI: 10.26434/chemrxiv.8326202.v1
   for GFN-FF:
   * S. Spicher and S. Grimme, Angew. Chem. Int. Ed., 2020, 59, 15665-15673.
     DOI: 10.1002/anie.202004239
   
   for ALPB and GBSA implicit solvation:
   * S. Ehlert, M. Stahn, S. Spicher, S. Grimme, J. Chem. Theory Comput.,
     2021, 17, 4250-4261. DOI: 10.1021/acs.jctc.1c00471
   
   for ddCOSMO and CPCM-X implicit solvation:
   * M. Stahn, S. Ehlert, S. Grimme, J. Phys. Chem. A,
     2023, XX, XXXX-XXXX. DOI: 10.1021/acs.jpca.3c04382
   
   for DFT-D4:
   * E. Caldeweyher, C. Bannwarth and S. Grimme, J. Chem. Phys., 2017,
     147, 034112. DOI: 10.1063/1.4993215
   * E. Caldeweyher, S. Ehlert, A. Hansen, H. Neugebauer, S. Spicher,
     C. Bannwarth and S. Grimme, J. Chem. Phys., 2019, 150, 154122.
     DOI: 10.1063/1.5090222
   * E. Caldeweyher, J.-M. Mewes, S. Ehlert and S. Grimme, Phys. Chem. Chem. Phys.
     2020, 22, 8499-8512. DOI: 10.1039/D0CP00502A
   
   for sTDA-xTB:
   * S. Grimme and C. Bannwarth, J. Chem. Phys., 2016, 145, 054103.
     DOI: 10.1063/1.4959605
   
   in the mass-spec context:
   * V. Asgeirsson, C. Bauer and S. Grimme, Chem. Sci., 2017, 8, 4879.
     DOI: 10.1039/c7sc00601b
   * J. Koopman and S. Grimme, ACS Omega 2019, 4, 12, 15120-15133.
     DOI: 10.1021/acsomega.9b02011
   
   for metadynamics refer to:
   * S. Grimme, J. Chem. Theory Comput., 2019, 155, 2847-2862
     DOI: 10.1021/acs.jctc.9b00143
   
   for SPH calculations refer to:
   * S. Spicher and S. Grimme, J. Chem. Theory Comput., 2021, 17, 1701-1714
     DOI: 10.1021/acs.jctc.0c01306
   
   for ONIOM refer to:
   * C. Plett, A. Katbashev, S. Ehlert, S. Grimme, M. Bursch,
     Phys. Chem. Chem. Phys., 2023, 25, 17860-17868. DOI: 10.1039/D3CP02178E
   
   for DIPRO refer to:
   * J. Kohn, N. Gildemeister, S. Grimme, D. Fazzi, A. Hansen,
     J. Chem. Phys., 2023, just accepted.
   
   for PTB refer to:
   * S. Grimme, M. Mueller, A. Hansen, J. Chem. Phys., 2023, 158, 124111.
     DOI: 10.1063/5.0137838
   
   with help from (in alphabetical order)
   P. Atkinson, C. Bannwarth, F. Bohle, G. Brandenburg, E. Caldeweyher
   M. Checinski, S. Dohm, S. Ehlert, S. Ehrlich, I. Gerasimov, C. Hölzer
   A. Katbashev, J. Kohn, J. Koopman, C. Lavigne, S. Lehtola, F. März, M. Müller,
   F. Musil, H. Neugebauer, J. Pisarek, C. Plett, P. Pracht, F. Pultar,
   J. Seibert, P. Shushkov, S. Spicher, M. Stahn, M. Steiner, T. Strunk,
   J. Stückrath, T. Rose, and J. Unsleber
   
 * started run on 2025/06/25 at 12:06:51.314     
$$$$$$$$$$$$$$$$$$$$$$$$$$$$$$$$$$$$$$$$$$$$$$$$$$$$$$$$$$$$$$$$$$$$$$$$
 CONSTRAINTS & SCANS: DEBUG SECTION
$$$$$$$$$$$$$$$$$$$$$$$$$$$$$$$$$$$$$$$$$$$$$$$$$$$$$$$$$$$$$$$$$$$$$$$$
   ID    Z sym.   atoms
    1    6 C      1-3
    2    7 N      4
    3    1 H      5-9
$$$$$$$$$$$$$$$$$$$$$$$$$$$$$$$$$$$$$$$$$$$$$$$$$$$$$$$$$$$$$$$$$$$$$$$$

           -------------------------------------------------
          |                Calculation Setup                |
           -------------------------------------------------

          program call               : C:\Users\nkapa\Downloads\xtb-6.7.1pre-windows-x86_64\xtb-6.7.1\bin\xtb.EXE dft_tmp\mol_310.xyz --gfn2 --parallel 8 --verbose
          coordinate file            : dft_tmp\mol_310.xyz
          xtbhome directory          : C:\Users\nkapa\AppData\Roaming\SPB_Data
          path for xtb               : C:\Users\nkapa\Downloads\xtb-6.7.1pre-windows-x86_64\xtb-6.7.1\share\xtb
          xcontrol input file        : dft_tmp\mol_310.xyz
          omp threads                :                     8


           -------------------------------------------------
          |                 G F N 2 - x T B                 |
           -------------------------------------------------

        Reference                      10.1021/acs.jctc.8b01176
      * Hamiltonian:
        H0-scaling (s, p, d)           1.850000    2.230000    2.230000
        zeta-weighting                 0.500000
      * Dispersion:
        s8                             2.700000
        a1                             0.520000
        a2                             5.000000
        s9                             5.000000
      * Repulsion:
        kExp                           1.500000    1.000000
        rExp                           1.000000
      * Coulomb:
        alpha                          2.000000
        third order                    shell-resolved
        anisotropic                    true
        a3                             3.000000
        a5                             4.000000
        cn-shift                       1.200000
        cn-exp                         4.000000
        max-rad                        5.000000


          ...................................................
          :                      SETUP                      :
          :.................................................:
          :  # basis functions                  21          :
          :  # atomic orbitals                  21          :
          :  # shells                           13          :
          :  # electrons                        22          :
          :  max. iterations                   250          :
          :  Hamiltonian                  GFN2-xTB          :
          :  restarted?                      false          :
          :  GBSA solvation                  false          :
          :  PC potential                    false          :
          :  electronic temp.          300.0000000     K    :
          :  accuracy                    1.0000000          :
          :  -> integral cutoff          0.2500000E+02      :
          :  -> integral neglect         0.1000000E-07      :
          :  -> SCF convergence          0.1000000E-05 Eh   :
          :  -> wf. convergence          0.1000000E-03 e    :
          :  Broyden damping             0.4000000          :
          :  net charge                          0          :
          :  unpaired electrons                  0          :
          ...................................................

 iter      E             dE          RMSdq      gap      omega  full diag
   1    -12.0302452 -0.120302E+02  0.498E+00    6.36       0.0  T
   2    -12.0362857 -0.604053E-02  0.316E+00    6.43       1.0  T
   3    -12.0204600  0.158257E-01  0.217E+00    5.65       1.0  T
   4    -12.0480038 -0.275438E-01  0.458E-01    5.81       1.0  T
   5    -12.0487349 -0.731102E-03  0.149E-01    5.78       1.0  T
   6    -12.0487815 -0.466101E-04  0.358E-02    5.78       1.0  T
   7    -12.0487819 -0.421789E-06  0.521E-03    5.78       6.4  T
   8    -12.0487820 -0.374288E-07  0.163E-03    5.78      20.5  T
   9    -12.0487820 -0.186827E-08  0.489E-04    5.78      68.1  T
  10    -12.0487820 -0.293001E-09  0.129E-04    5.78     259.0  T

   *** convergence criteria satisfied after 10 iterations ***

         #    Occupation            Energy/Eh            Energy/eV
      -------------------------------------------------------------
         1        2.0000           -0.6491462             -17.6642
       ...           ...                  ...                  ...
         5        2.0000           -0.5361237             -14.5887
         6        2.0000           -0.5106531             -13.8956
         7        2.0000           -0.4824269             -13.1275
         8        2.0000           -0.4791379             -13.0380
         9        2.0000           -0.4636775             -12.6173
        10        2.0000           -0.4535988             -12.3431
        11        2.0000           -0.4254094             -11.5760 (HOMO)
        12                         -0.2128369              -5.7916 (LUMO)
        13                         -0.2097781              -5.7084
        14                          0.0778546               2.1185
        15                          0.1009841               2.7479
        16                          0.1164695               3.1693
       ...                                ...                  ...
        21                          1.0545872              28.6968
      -------------------------------------------------------------
                  HL-Gap            0.2125725 Eh            5.7844 eV
             Fermi-level           -0.3191231 Eh           -8.6838 eV

 SCC (total)                   0 d,  0 h,  0 min,  0.003 sec
 SCC setup                      ...        0 min,  0.001 sec ( 33.331%)
 Dispersion                     ...        0 min,  0.000 sec (  0.000%)
 classical contributions        ...        0 min,  0.000 sec (  0.000%)
 integral evaluation            ...        0 min,  0.000 sec (  0.000%)
 iterations                     ...        0 min,  0.002 sec ( 66.669%)
 molecular gradient             ...        0 min,  0.000 sec (  0.000%)
 printout                       ...        0 min,  0.000 sec (  0.000%)

         :::::::::::::::::::::::::::::::::::::::::::::::::::::
         ::                     SUMMARY                     ::
         :::::::::::::::::::::::::::::::::::::::::::::::::::::
         :: total energy             -11.848913949389 Eh    ::
         :: gradient norm              0.052784292526 Eh/a0 ::
         :: HOMO-LUMO gap              5.784390813672 eV    ::
         ::.................................................::
         :: HOMO orbital eigv.       -11.575978194013 eV    ::
         :: LUMO orbital eigv.        -5.791587380341 eV    ::
         ::.................................................::
         :: SCC energy               -12.048780851597 Eh    ::
         :: -> isotropic ES            0.009308008497 Eh    ::
         :: -> anisotropic ES          0.002749733114 Eh    ::
         :: -> anisotropic XC          0.021424081580 Eh    ::
         :: -> dispersion             -0.003591391380 Eh    ::
         :: repulsion energy           0.199866902208 Eh    ::
         :: add. restraining           0.000000000000 Eh    ::
         :: total charge              -0.000000000000 e     ::
         ::.................................................::
         :: atomisation energy         2.482185316074 Eh    ::
         :::::::::::::::::::::::::::::::::::::::::::::::::::::

           -------------------------------------------------
          |                Property Printout                |
           -------------------------------------------------

    * Orbital Energies and Occupations

         #    Occupation            Energy/Eh            Energy/eV
      -------------------------------------------------------------
         1        2.0000           -0.6491462             -17.6642
         2        2.0000           -0.6385614             -17.3761
         3        2.0000           -0.5984767             -16.2854
         4        2.0000           -0.5479289             -14.9099
         5        2.0000           -0.5361237             -14.5887
         6        2.0000           -0.5106531             -13.8956
         7        2.0000           -0.4824269             -13.1275
         8        2.0000           -0.4791379             -13.0380
         9        2.0000           -0.4636775             -12.6173
        10        2.0000           -0.4535988             -12.3431
        11        2.0000           -0.4254094             -11.5760 (HOMO)
        12                         -0.2128369              -5.7916 (LUMO)
        13                         -0.2097781              -5.7084
        14                          0.0778546               2.1185
        15                          0.1009841               2.7479
        16                          0.1164695               3.1693
        17                          0.1179790               3.2104
        18                          0.1481364               4.0310
        19                          0.2052336               5.5847
        20                          0.2340877               6.3698
        21                          1.0545872              28.6968
      -------------------------------------------------------------
                  HL-Gap            0.2125725 Eh            5.7844 eV
             Fermi-level           -0.3191231 Eh           -8.6838 eV

     #   Z          covCN         q      C6AA      α(0)
     1   6 C        3.747    -0.090    22.280     6.733
     2   6 C        3.797    -0.043    21.351     6.579
     3   6 C        1.896     0.111    28.378     8.603
     4   7 N        0.911    -0.234    26.122     7.392
     5   1 H        0.921     0.044     2.400     2.423
     6   1 H        0.921     0.044     2.400     2.423
     7   1 H        0.922     0.042     2.428     2.437
     8   1 H        0.922     0.063     2.160     2.299
     9   1 H        0.922     0.063     2.160     2.299

 Mol. C6AA /au·bohr⁶  :        746.968560
 Mol. C8AA /au·bohr⁸  :      16665.970021
 Mol. α(0) /au        :         41.187037


Wiberg/Mayer (AO) data.
largest (>0.10) Wiberg bond orders for each atom

 ---------------------------------------------------------------------------
     #   Z sym  total        # sym  WBO       # sym  WBO       # sym  WBO
 ---------------------------------------------------------------------------
     1   6 C    3.994 --     2 C    0.997     5 H    0.988     6 H    0.988
                             7 H    0.984
     2   6 C    3.997 --     3 C    1.042     1 C    0.997     8 H    0.949
                             9 H    0.949
     3   6 C    3.938 --     4 N    2.858     2 C    1.042
     4   7 N    3.008 --     3 C    2.858
     5   1 H    0.998 --     1 C    0.988
     6   1 H    0.998 --     1 C    0.988
     7   1 H    0.998 --     1 C    0.984
     8   1 H    0.996 --     2 C    0.949
     9   1 H    0.996 --     2 C    0.949
 ---------------------------------------------------------------------------

Topologies differ in total number of bonds
Writing topology from bond orders to xtbtopo.mol

molecular dipole:
                 x           y           z       tot (Debye)
 q only:       -0.901       0.460      -0.002
   full:       -1.310       0.728      -0.003       3.808
molecular quadrupole (traceless):
                xx          xy          yy          xz          yz          zz
 q only:       -4.340       2.539       2.039      -0.013       0.002       2.301
  q+dip:       -7.197       3.099       3.033      -0.016       0.006       4.163
   full:       -7.929       4.478       3.237      -0.022       0.007       4.692


           -------------------------------------------------
          | TOTAL ENERGY              -11.848913949389 Eh   |
          | GRADIENT NORM               0.052784292526 Eh/α |
          | HOMO-LUMO GAP               5.784390813672 eV   |
           -------------------------------------------------
########################################################################
[WARNING] Runtime exception occurred
-2- restart_readRestart: Dimension missmatch in restart file.
-1- restart_readRestart: Number of electron missmatch in restart file.
########################################################################

------------------------------------------------------------------------
 unit  open   action     filename
  129 false : read       dft_tmp\mol_310.xyz
  129 false : read       dft_tmp\mol_310.xyz
  129 false : read       dft_tmp\mol_310.xyz
  129 false : read       C:\Users\nkapa\Downloads\xtb-6.7.1pre-windows-x86_64\xtb-6.7.1\share\xtb\param_gfn2-xtb.txt
  129 false : read       xtbrestart
  129 false : replaced   charges
  129 false : replaced   wbo
  129 false : replaced   xtbtopo.mol
  129 false : replaced   xtbrestart

------------------------------------------------------------------------
 * finished run on 2025/06/25 at 12:06:51.351     
------------------------------------------------------------------------
 total:
 * wall-time:     0 d,  0 h,  0 min,  0.037 sec
 *  cpu-time:     0 d,  0 h,  0 min,  0.141 sec
 * ratio c/w:     3.801 speedup
 SCF:
 * wall-time:     0 d,  0 h,  0 min,  0.003 sec
 *  cpu-time:     0 d,  0 h,  0 min,  0.125 sec
 * ratio c/w:    41.666 speedup

normal termination of xtb
