      -----------------------------------------------------------      
     |                   =====================                   |     
     |                           x T B                           |     
     |                   =====================                   |     
     |                         S. Grimme                         |     
     |          Mulliken Center for Theoretical Chemistry        |     
     |                    University of Bonn                     |     
      -----------------------------------------------------------      

   * xtb version 6.7.1pre (5071a88) compiled by 'Marcel@Raven' on 2024-07-23

   xtb is free software: you can redistribute it and/or modify it under
   the terms of the GNU Lesser General Public License as published by
   the Free Software Foundation, either version 3 of the License, or
   (at your option) any later version.
   
   xtb is distributed in the hope that it will be useful,
   but WITHOUT ANY WARRANTY; without even the implied warranty of
   MERCHANTABILITY or FITNESS FOR A PARTICULAR PURPOSE.  See the
   GNU Lesser General Public License for more details.
   
   Cite this work as:
   * C. Bannwarth, E. Caldeweyher, S. Ehlert, A. Hansen, P. Pracht,
     J. Seibert, S. Spicher, S. Grimme, WIREs Comput. Mol. Sci., 2020, 11,
     e01493. DOI: 10.1002/wcms.1493
   
   for GFN2-xTB:
   * C. Bannwarth, S. Ehlert and S. Grimme., J. Chem. Theory Comput., 2019,
     15, 1652-1671. DOI: 10.1021/acs.jctc.8b01176
   for GFN1-xTB:
   * S. Grimme, C. Bannwarth, P. Shushkov, J. Chem. Theory Comput., 2017,
     13, 1989-2009. DOI: 10.1021/acs.jctc.7b00118
   for GFN0-xTB:
   * P. Pracht, E. Caldeweyher, S. Ehlert, S. Grimme, ChemRxiv, 2019, preprint.
     DOI: 10.26434/chemrxiv.8326202.v1
   for GFN-FF:
   * S. Spicher and S. Grimme, Angew. Chem. Int. Ed., 2020, 59, 15665-15673.
     DOI: 10.1002/anie.202004239
   
   for ALPB and GBSA implicit solvation:
   * S. Ehlert, M. Stahn, S. Spicher, S. Grimme, J. Chem. Theory Comput.,
     2021, 17, 4250-4261. DOI: 10.1021/acs.jctc.1c00471
   
   for ddCOSMO and CPCM-X implicit solvation:
   * M. Stahn, S. Ehlert, S. Grimme, J. Phys. Chem. A,
     2023, XX, XXXX-XXXX. DOI: 10.1021/acs.jpca.3c04382
   
   for DFT-D4:
   * E. Caldeweyher, C. Bannwarth and S. Grimme, J. Chem. Phys., 2017,
     147, 034112. DOI: 10.1063/1.4993215
   * E. Caldeweyher, S. Ehlert, A. Hansen, H. Neugebauer, S. Spicher,
     C. Bannwarth and S. Grimme, J. Chem. Phys., 2019, 150, 154122.
     DOI: 10.1063/1.5090222
   * E. Caldeweyher, J.-M. Mewes, S. Ehlert and S. Grimme, Phys. Chem. Chem. Phys.
     2020, 22, 8499-8512. DOI: 10.1039/D0CP00502A
   
   for sTDA-xTB:
   * S. Grimme and C. Bannwarth, J. Chem. Phys., 2016, 145, 054103.
     DOI: 10.1063/1.4959605
   
   in the mass-spec context:
   * V. Asgeirsson, C. Bauer and S. Grimme, Chem. Sci., 2017, 8, 4879.
     DOI: 10.1039/c7sc00601b
   * J. Koopman and S. Grimme, ACS Omega 2019, 4, 12, 15120-15133.
     DOI: 10.1021/acsomega.9b02011
   
   for metadynamics refer to:
   * S. Grimme, J. Chem. Theory Comput., 2019, 155, 2847-2862
     DOI: 10.1021/acs.jctc.9b00143
   
   for SPH calculations refer to:
   * S. Spicher and S. Grimme, J. Chem. Theory Comput., 2021, 17, 1701-1714
     DOI: 10.1021/acs.jctc.0c01306
   
   for ONIOM refer to:
   * C. Plett, A. Katbashev, S. Ehlert, S. Grimme, M. Bursch,
     Phys. Chem. Chem. Phys., 2023, 25, 17860-17868. DOI: 10.1039/D3CP02178E
   
   for DIPRO refer to:
   * J. Kohn, N. Gildemeister, S. Grimme, D. Fazzi, A. Hansen,
     J. Chem. Phys., 2023, just accepted.
   
   for PTB refer to:
   * S. Grimme, M. Mueller, A. Hansen, J. Chem. Phys., 2023, 158, 124111.
     DOI: 10.1063/5.0137838
   
   with help from (in alphabetical order)
   P. Atkinson, C. Bannwarth, F. Bohle, G. Brandenburg, E. Caldeweyher
   M. Checinski, S. Dohm, S. Ehlert, S. Ehrlich, I. Gerasimov, C. Hölzer
   A. Katbashev, J. Kohn, J. Koopman, C. Lavigne, S. Lehtola, F. März, M. Müller,
   F. Musil, H. Neugebauer, J. Pisarek, C. Plett, P. Pracht, F. Pultar,
   J. Seibert, P. Shushkov, S. Spicher, M. Stahn, M. Steiner, T. Strunk,
   J. Stückrath, T. Rose, and J. Unsleber
   
 * started run on 2025/06/25 at 12:06:07.640     
$$$$$$$$$$$$$$$$$$$$$$$$$$$$$$$$$$$$$$$$$$$$$$$$$$$$$$$$$$$$$$$$$$$$$$$$
 CONSTRAINTS & SCANS: DEBUG SECTION
$$$$$$$$$$$$$$$$$$$$$$$$$$$$$$$$$$$$$$$$$$$$$$$$$$$$$$$$$$$$$$$$$$$$$$$$
   ID    Z sym.   atoms
    1    6 C      1, 3, 4, 6
    2    8 O      2, 5
    3    1 H      7-16
$$$$$$$$$$$$$$$$$$$$$$$$$$$$$$$$$$$$$$$$$$$$$$$$$$$$$$$$$$$$$$$$$$$$$$$$

           -------------------------------------------------
          |                Calculation Setup                |
           -------------------------------------------------

          program call               : C:\Users\nkapa\Downloads\xtb-6.7.1pre-windows-x86_64\xtb-6.7.1\bin\xtb.EXE dft_tmp\mol_18.xyz --gfn2 --parallel 8 --verbose
          coordinate file            : dft_tmp\mol_18.xyz
          xtbhome directory          : C:\Users\nkapa\AppData\Roaming\SPB_Data
          path for xtb               : C:\Users\nkapa\Downloads\xtb-6.7.1pre-windows-x86_64\xtb-6.7.1\share\xtb
          xcontrol input file        : dft_tmp\mol_18.xyz
          omp threads                :                     8


           -------------------------------------------------
          |                 G F N 2 - x T B                 |
           -------------------------------------------------

        Reference                      10.1021/acs.jctc.8b01176
      * Hamiltonian:
        H0-scaling (s, p, d)           1.850000    2.230000    2.230000
        zeta-weighting                 0.500000
      * Dispersion:
        s8                             2.700000
        a1                             0.520000
        a2                             5.000000
        s9                             5.000000
      * Repulsion:
        kExp                           1.500000    1.000000
        rExp                           1.000000
      * Coulomb:
        alpha                          2.000000
        third order                    shell-resolved
        anisotropic                    true
        a3                             3.000000
        a5                             4.000000
        cn-shift                       1.200000
        cn-exp                         4.000000
        max-rad                        5.000000


          ...................................................
          :                      SETUP                      :
          :.................................................:
          :  # basis functions                  34          :
          :  # atomic orbitals                  34          :
          :  # shells                           22          :
          :  # electrons                        38          :
          :  max. iterations                   250          :
          :  Hamiltonian                  GFN2-xTB          :
          :  restarted?                      false          :
          :  GBSA solvation                  false          :
          :  PC potential                    false          :
          :  electronic temp.          300.0000000     K    :
          :  accuracy                    1.0000000          :
          :  -> integral cutoff          0.2500000E+02      :
          :  -> integral neglect         0.1000000E-07      :
          :  -> SCF convergence          0.1000000E-05 Eh   :
          :  -> wf. convergence          0.1000000E-03 e    :
          :  Broyden damping             0.4000000          :
          :  net charge                          0          :
          :  unpaired electrons                  0          :
          ...................................................

 iter      E             dE          RMSdq      gap      omega  full diag
   1    -21.8895746 -0.218896E+02  0.457E+00   11.89       0.0  T
   2    -21.9484933 -0.589187E-01  0.233E+00   11.33       1.0  T
   3    -21.9491185 -0.625267E-03  0.968E-01   11.43       1.0  T
   4    -21.9493028 -0.184271E-03  0.121E-01   11.47       1.0  T
   5    -21.9493042 -0.139793E-05  0.240E-02   11.49       1.0  T
   6    -21.9493087 -0.447573E-05  0.555E-03   11.49       4.5  T
   7    -21.9493087 -0.528205E-07  0.311E-03   11.49       8.0  T
   8    -21.9493088 -0.275126E-07  0.965E-04   11.49      25.9  T
   9    -21.9493088 -0.157459E-08  0.132E-04   11.49     189.6  T

   *** convergence criteria satisfied after 9 iterations ***

         #    Occupation            Energy/Eh            Energy/eV
      -------------------------------------------------------------
         1        2.0000           -0.6960517             -18.9405
       ...           ...                  ...                  ...
        13        2.0000           -0.4883754             -13.2894
        14        2.0000           -0.4731882             -12.8761
        15        2.0000           -0.4576016             -12.4520
        16        2.0000           -0.4540918             -12.3565
        17        2.0000           -0.4523352             -12.3087
        18        2.0000           -0.4018738             -10.9355
        19        2.0000           -0.4009984             -10.9117 (HOMO)
        20                          0.0212110               0.5772 (LUMO)
        21                          0.0447562               1.2179
        22                          0.0881550               2.3988
        23                          0.0951614               2.5895
        24                          0.1041477               2.8340
       ...                                ...                  ...
        34                          0.2380761               6.4784
      -------------------------------------------------------------
                  HL-Gap            0.4222094 Eh           11.4889 eV
             Fermi-level           -0.1898937 Eh           -5.1673 eV

 SCC (total)                   0 d,  0 h,  0 min,  0.005 sec
 SCC setup                      ...        0 min,  0.000 sec (  0.000%)
 Dispersion                     ...        0 min,  0.001 sec ( 19.999%)
 classical contributions        ...        0 min,  0.000 sec (  0.000%)
 integral evaluation            ...        0 min,  0.000 sec (  0.000%)
 iterations                     ...        0 min,  0.003 sec ( 60.002%)
 molecular gradient             ...        0 min,  0.001 sec ( 19.999%)
 printout                       ...        0 min,  0.000 sec (  0.000%)

         :::::::::::::::::::::::::::::::::::::::::::::::::::::
         ::                     SUMMARY                     ::
         :::::::::::::::::::::::::::::::::::::::::::::::::::::
         :: total energy             -21.764951971709 Eh    ::
         :: gradient norm              0.043098394531 Eh/a0 ::
         :: HOMO-LUMO gap             11.488902930141 eV    ::
         ::.................................................::
         :: HOMO orbital eigv.       -10.911722902453 eV    ::
         :: LUMO orbital eigv.         0.577180027688 eV    ::
         ::.................................................::
         :: SCC energy               -21.949310369752 Eh    ::
         :: -> isotropic ES            0.033741603741 Eh    ::
         :: -> anisotropic ES          0.005852222150 Eh    ::
         :: -> anisotropic XC          0.002704444130 Eh    ::
         :: -> dispersion             -0.007623970630 Eh    ::
         :: repulsion energy           0.184358398043 Eh    ::
         :: add. restraining           0.000000000000 Eh    ::
         :: total charge              -0.000000000000 e     ::
         ::.................................................::
         :: atomisation energy         3.807020866692 Eh    ::
         :::::::::::::::::::::::::::::::::::::::::::::::::::::

           -------------------------------------------------
          |                Property Printout                |
           -------------------------------------------------

    * Orbital Energies and Occupations

         #    Occupation            Energy/Eh            Energy/eV
      -------------------------------------------------------------
         1        2.0000           -0.6960517             -18.9405
       ...           ...                  ...                  ...
         7        2.0000           -0.5585132             -15.1979
         8        2.0000           -0.5580858             -15.1863
         9        2.0000           -0.5478540             -14.9079
        10        2.0000           -0.5355480             -14.5730
        11        2.0000           -0.5312092             -14.4549
        12        2.0000           -0.5074801             -13.8092
        13        2.0000           -0.4883754             -13.2894
        14        2.0000           -0.4731882             -12.8761
        15        2.0000           -0.4576016             -12.4520
        16        2.0000           -0.4540918             -12.3565
        17        2.0000           -0.4523352             -12.3087
        18        2.0000           -0.4018738             -10.9355
        19        2.0000           -0.4009984             -10.9117 (HOMO)
        20                          0.0212110               0.5772 (LUMO)
        21                          0.0447562               1.2179
        22                          0.0881550               2.3988
        23                          0.0951614               2.5895
        24                          0.1041477               2.8340
        25                          0.1090133               2.9664
        26                          0.1336801               3.6376
        27                          0.1443365               3.9276
        28                          0.1462315               3.9792
        29                          0.1783197               4.8523
        30                          0.1798267               4.8933
       ...                                ...                  ...
        34                          0.2380761               6.4784
      -------------------------------------------------------------
                  HL-Gap            0.4222094 Eh           11.4889 eV
             Fermi-level           -0.1898937 Eh           -5.1673 eV

     #   Z          covCN         q      C6AA      α(0)
     1   6 C        3.668     0.042    20.123     6.432
     2   8 O        1.700    -0.294    18.895     5.869
     3   6 C        3.721     0.083    19.303     6.275
     4   6 C        3.721     0.083    19.303     6.275
     5   8 O        1.700    -0.294    18.895     5.869
     6   6 C        3.668     0.042    20.123     6.432
     7   1 H        0.921     0.027     2.635     2.539
     8   1 H        0.921     0.030     2.581     2.513
     9   1 H        0.922     0.056     2.241     2.341
    10   1 H        0.921     0.035     2.518     2.481
    11   1 H        0.921     0.021     2.719     2.579
    12   1 H        0.921     0.035     2.518     2.481
    13   1 H        0.921     0.021     2.719     2.579
    14   1 H        0.922     0.056     2.241     2.341
    15   1 H        0.921     0.027     2.635     2.539
    16   1 H        0.921     0.030     2.581     2.513

 Mol. C6AA /au·bohr⁶  :       1786.477465
 Mol. C8AA /au·bohr⁸  :      35906.923161
 Mol. α(0) /au        :         62.057464


Wiberg/Mayer (AO) data.
largest (>0.10) Wiberg bond orders for each atom

 ---------------------------------------------------------------------------
     #   Z sym  total        # sym  WBO       # sym  WBO       # sym  WBO
 ---------------------------------------------------------------------------
     1   6 C    3.952 --     2 O    0.999     9 H    0.980     8 H    0.976
                             7 H    0.976
     2   8 O    2.083 --     1 C    0.999     3 C    0.993
     3   6 C    3.961 --     4 C    0.999     2 O    0.993    11 H    0.964
                            10 H    0.964
     4   6 C    3.961 --     3 C    0.999     5 O    0.993    13 H    0.964
                            12 H    0.964
     5   8 O    2.083 --     6 C    0.999     4 C    0.993
     6   6 C    3.952 --     5 O    0.999    14 H    0.980    16 H    0.976
                            15 H    0.976
     7   1 H    0.999 --     1 C    0.976
     8   1 H    0.999 --     1 C    0.976
     9   1 H    0.996 --     1 C    0.980
    10   1 H    0.999 --     3 C    0.964
    11   1 H    0.999 --     3 C    0.964
    12   1 H    0.999 --     4 C    0.964
    13   1 H    0.999 --     4 C    0.964
    14   1 H    0.996 --     6 C    0.980
    15   1 H    0.999 --     6 C    0.976
    16   1 H    0.999 --     6 C    0.976
 ---------------------------------------------------------------------------

Topologies differ in total number of bonds
Writing topology from bond orders to xtbtopo.mol

molecular dipole:
                 x           y           z       tot (Debye)
 q only:        0.040      -0.048      -0.562
   full:        0.058      -0.071      -0.826       2.113
molecular quadrupole (traceless):
                xx          xy          yy          xz          yz          zz
 q only:        6.126       1.710      -3.461       0.474       0.189      -2.665
  q+dip:        4.666       1.739      -1.834       0.380       0.037      -2.832
   full:        6.015       2.039      -2.964       0.465       0.137      -3.050


           -------------------------------------------------
          | TOTAL ENERGY              -21.764951971709 Eh   |
          | GRADIENT NORM               0.043098394531 Eh/α |
          | HOMO-LUMO GAP              11.488902930141 eV   |
           -------------------------------------------------
########################################################################
[WARNING] Runtime exception occurred
-2- restart_readRestart: Dimension missmatch in restart file.
-1- restart_readRestart: Number of electron missmatch in restart file.
########################################################################

------------------------------------------------------------------------
 unit  open   action     filename
  129 false : read       dft_tmp\mol_18.xyz
  129 false : read       dft_tmp\mol_18.xyz
  129 false : read       dft_tmp\mol_18.xyz
  129 false : read       C:\Users\nkapa\Downloads\xtb-6.7.1pre-windows-x86_64\xtb-6.7.1\share\xtb\param_gfn2-xtb.txt
  129 false : read       xtbrestart
  129 false : replaced   charges
  129 false : replaced   wbo
  129 false : replaced   xtbtopo.mol
  129 false : replaced   xtbrestart

------------------------------------------------------------------------
 * finished run on 2025/06/25 at 12:06:07.670     
------------------------------------------------------------------------
 total:
 * wall-time:     0 d,  0 h,  0 min,  0.029 sec
 *  cpu-time:     0 d,  0 h,  0 min,  0.125 sec
 * ratio c/w:     4.310 speedup
 SCF:
 * wall-time:     0 d,  0 h,  0 min,  0.005 sec
 *  cpu-time:     0 d,  0 h,  0 min,  0.000 sec
 * ratio c/w:     0.000 speedup

normal termination of xtb
