17

C -0.630652 -0.750007 -0.745793
C 0.911367 -0.855999 -0.616275
C 1.523004 0.296893 0.229529
C 0.582255 1.473064 0.362525
C -0.874439 1.255403 0.033740
O -1.457911 0.472861 1.052158
C -1.326807 -0.848171 0.597321
O -0.941748 0.539296 -1.173111
O 0.976611 2.545243 0.793711
H -1.019861 -1.505930 -1.461666
H 1.344172 -0.815669 -1.639690
H 1.191352 -1.839025 -0.179141
H 2.472526 0.633284 -0.240124
H 1.758739 -0.077149 1.248880
H -1.415555 2.220538 -0.065039
H -0.753933 -1.455522 1.331220
H -2.339119 -1.289110 0.471756
