126

O 2.727272 -6.190146 1.607915
C 2.024412 -5.015092 1.929925
C 1.789556 -4.195939 0.662654
O 3.044919 -3.722306 0.167913
C 2.925811 -2.789220 -0.931907
O 3.258121 -1.492984 -0.490764
C 4.655995 -1.402367 -0.270665
C 5.240355 -0.510188 -1.393968
O 5.997215 -1.290079 -2.271817
C 6.121902 0.579227 -0.802441
O 6.463712 1.500463 -1.804501
C 5.312887 1.304383 0.289234
O 5.113782 0.506097 1.443646
C 4.860982 -0.896241 1.216342
C 5.989001 -1.711892 1.899601
O 6.056546 -1.524240 3.293825
O 4.063402 1.725195 -0.238324
C 3.845949 3.111153 -0.005391
C 3.109037 3.665877 -1.208585
O 4.025231 4.038647 -2.201925
C 2.256722 4.870568 -0.797498
O 1.651111 5.427516 -1.934656
C 1.183027 4.333227 0.176119
O 1.630814 3.434689 1.194507
C 3.050164 3.294070 1.350357
C 3.629266 4.383373 2.276760
O 4.997623 4.156986 2.473425
O 0.250172 3.597628 -0.585622
C -0.969294 4.261151 -0.661410
C -1.762045 3.712922 -1.859338
O -1.189856 4.088949 -3.079726
C -3.213233 4.217566 -1.706566
O -3.937729 4.062448 -2.884828
C -3.815569 3.397658 -0.544582
O -2.925518 3.202149 0.572558
C -1.787019 4.078292 0.681013
C -2.165845 5.410109 1.363109
O -2.393541 5.164103 2.733016
O -4.142606 2.139654 -1.092595
C -4.814467 1.277743 -0.199067
C -5.612665 0.310574 -1.099001
O -6.671784 0.972051 -1.741371
C -6.186128 -0.827194 -0.236581
O -6.953043 -1.674499 -1.048872
C -5.022991 -1.583027 0.471868
O -3.765650 -0.856708 0.351239
C -3.819356 0.499846 0.709337
C -4.095215 0.627923 2.205353
O -3.837012 1.922430 2.649085
O -4.909892 -2.898795 -0.061308
C -3.574202 -3.389386 -0.065987
C -3.133668 -3.878273 1.330210
O -3.294688 -2.890141 2.318433
C -1.635787 -4.212699 1.236692
O -1.292167 -5.160419 2.233415
C -1.263431 -4.748800 -0.177659
O -2.358208 -5.466214 -0.708835
C -3.451363 -4.581413 -1.045326
C -3.301031 -4.104751 -2.500846
O -4.491038 -3.522891 -2.987167
O -0.137575 -5.615671 -0.065425
C 1.103766 -5.037779 -0.456117
C 1.141501 -4.289610 -1.855779
O 2.139305 -4.916187 -2.611044
C 1.536079 -2.799737 -1.667315
O 0.541519 -2.090297 -0.907842
H 2.306232 -6.927230 2.140391
H 2.663255 -4.408427 2.623057
H 1.073434 -5.197908 2.431904
H 1.156959 -3.340828 0.942555
H 3.643537 -3.142362 -1.700274
H 5.190898 -2.340927 -0.338911
H 4.419811 -0.001489 -1.920741
H 5.350351 -1.629701 -2.947106
H 7.036445 0.146354 -0.331010
H 7.423468 1.344042 -2.025067
H 6.004734 2.104413 0.623575
H 3.937425 -1.129726 1.759319
H 6.974292 -1.448498 1.470774
H 5.812731 -2.787148 1.723511
H 5.790816 -0.583813 3.506928
H 4.776233 3.716282 0.072901
H 2.417366 2.859961 -1.596835
H 3.568416 3.922357 -3.073745
H 2.901271 5.623322 -0.304855
H 1.383306 6.342051 -1.645526
H 0.770746 5.203818 0.707204
H 3.182336 2.365712 1.906408
H 3.501656 5.397174 1.825725
H 3.087127 4.375784 3.221955
H 5.074875 3.473618 3.194670
H -0.854819 5.351769 -0.854956
H -1.749169 2.597595 -1.821889
H -1.110496 5.084844 -3.044955
H -3.142188 5.277414 -1.411821
H -4.748550 4.628094 -2.764132
H -4.669592 3.986491 -0.231353
H -1.119009 3.547204 1.374644
H -1.318790 6.127294 1.269438
H -3.070812 5.839100 0.885957
H -2.972461 5.909377 3.042831
H -5.590252 1.793745 0.433979
H -4.898438 -0.128534 -1.832090
H -6.620257 0.723132 -2.709699
H -6.834764 -0.379393 0.543560
H -7.391220 -2.311321 -0.432895
H -5.261742 -1.671044 1.531604
H -2.806633 0.850886 0.496598
H -3.415737 -0.066203 2.748330
H -5.157110 0.345151 2.430001
H -4.673475 2.448334 2.462558
H -2.825848 -2.656670 -0.479948
H -3.738105 -4.799810 1.581521
H -3.554137 -3.397952 3.139881
H -1.049817 -3.284051 1.410416
H -1.457463 -4.724710 3.106215
H -1.072604 -3.865026 -0.808029
H -4.390721 -5.160111 -0.981677
H -3.068573 -4.975723 -3.128037
H -2.447194 -3.379098 -2.610645
H -4.665254 -2.727597 -2.420602
H 1.782005 -5.896243 -0.599611
H 0.170966 -4.361137 -2.388888
H 1.810269 -5.001225 -3.552683
H 1.651695 -2.340061 -2.658440
H 0.999029 -1.310830 -0.449209
