24

C 2.103951 -0.624661 0.325642
C 1.114610 0.232751 1.143320
C 0.359619 1.308149 0.310381
C -0.646434 0.720616 -0.716761
C -1.707761 -0.137433 -0.055840
O -2.417748 0.344747 0.814761
C -1.910113 -1.573831 -0.446903
O -3.218913 -1.749338 -0.911635
O -1.264514 1.750273 -1.448777
O 1.290583 2.125726 -0.355398
O 1.790187 0.851138 2.210818
O 1.418094 -1.595232 -0.414585
H 2.712563 0.015382 -0.350962
H 2.798453 -1.138529 1.027774
H 0.369589 -0.453187 1.600798
H -0.216423 1.927673 1.039652
H -0.077934 0.112557 -1.449350
H -1.735812 -2.215458 0.445103
H -1.192620 -1.873557 -1.241582
H -3.307074 -2.713815 -1.128643
H -1.735636 2.341852 -0.804642
H 0.861084 3.010700 -0.490171
H 2.504248 1.423684 1.825217
H 2.108001 -2.090205 -0.928217
