32

C -3.899044 1.036628 -0.195314
C -2.987987 -0.085652 0.293181
C -1.537759 0.149829 -0.142801
C -0.625111 -0.976633 0.348147
N 0.749547 -0.731249 -0.078571
C 1.316525 -1.114542 -1.240255
C 2.609118 -0.631109 -1.269650
N 2.822830 0.068283 -0.137610
C 1.682817 -0.011917 0.575156
C 4.071736 0.691045 0.280972
C -0.654094 -0.050206 -0.123218
C 0.810571 0.021878 0.146861
O 1.418361 -0.980371 0.605961
O 1.498179 1.211453 -0.056261
H -3.882119 1.092118 -1.304699
H -4.940895 0.839772 0.134470
H -3.571175 2.010823 0.226048
H -3.352252 -1.050825 -0.121683
H -3.042562 -0.135922 1.402620
H -1.487612 0.201461 -1.252790
H -1.177880 1.117067 0.272173
H -0.663828 -1.037907 1.458075
H -0.972780 -1.950481 -0.061670
H 0.828246 -1.701802 -2.007192
H 3.337282 -0.780323 -2.056442
H 1.535219 0.442193 1.547428
H 4.641580 1.038612 -0.606868
H 3.862501 1.565825 0.932716
H 4.683606 -0.045293 0.842696
H -0.920039 -1.053448 -0.518139
H -0.939699 0.717247 -0.872837
H -1.213278 0.133446 0.817632
