      -----------------------------------------------------------      
     |                   =====================                   |     
     |                           x T B                           |     
     |                   =====================                   |     
     |                         S. Grimme                         |     
     |          Mulliken Center for Theoretical Chemistry        |     
     |                    University of Bonn                     |     
      -----------------------------------------------------------      

   * xtb version 6.7.1pre (5071a88) compiled by 'Marcel@Raven' on 2024-07-23

   xtb is free software: you can redistribute it and/or modify it under
   the terms of the GNU Lesser General Public License as published by
   the Free Software Foundation, either version 3 of the License, or
   (at your option) any later version.
   
   xtb is distributed in the hope that it will be useful,
   but WITHOUT ANY WARRANTY; without even the implied warranty of
   MERCHANTABILITY or FITNESS FOR A PARTICULAR PURPOSE.  See the
   GNU Lesser General Public License for more details.
   
   Cite this work as:
   * C. Bannwarth, E. Caldeweyher, S. Ehlert, A. Hansen, P. Pracht,
     J. Seibert, S. Spicher, S. Grimme, WIREs Comput. Mol. Sci., 2020, 11,
     e01493. DOI: 10.1002/wcms.1493
   
   for GFN2-xTB:
   * C. Bannwarth, S. Ehlert and S. Grimme., J. Chem. Theory Comput., 2019,
     15, 1652-1671. DOI: 10.1021/acs.jctc.8b01176
   for GFN1-xTB:
   * S. Grimme, C. Bannwarth, P. Shushkov, J. Chem. Theory Comput., 2017,
     13, 1989-2009. DOI: 10.1021/acs.jctc.7b00118
   for GFN0-xTB:
   * P. Pracht, E. Caldeweyher, S. Ehlert, S. Grimme, ChemRxiv, 2019, preprint.
     DOI: 10.26434/chemrxiv.8326202.v1
   for GFN-FF:
   * S. Spicher and S. Grimme, Angew. Chem. Int. Ed., 2020, 59, 15665-15673.
     DOI: 10.1002/anie.202004239
   
   for ALPB and GBSA implicit solvation:
   * S. Ehlert, M. Stahn, S. Spicher, S. Grimme, J. Chem. Theory Comput.,
     2021, 17, 4250-4261. DOI: 10.1021/acs.jctc.1c00471
   
   for ddCOSMO and CPCM-X implicit solvation:
   * M. Stahn, S. Ehlert, S. Grimme, J. Phys. Chem. A,
     2023, XX, XXXX-XXXX. DOI: 10.1021/acs.jpca.3c04382
   
   for DFT-D4:
   * E. Caldeweyher, C. Bannwarth and S. Grimme, J. Chem. Phys., 2017,
     147, 034112. DOI: 10.1063/1.4993215
   * E. Caldeweyher, S. Ehlert, A. Hansen, H. Neugebauer, S. Spicher,
     C. Bannwarth and S. Grimme, J. Chem. Phys., 2019, 150, 154122.
     DOI: 10.1063/1.5090222
   * E. Caldeweyher, J.-M. Mewes, S. Ehlert and S. Grimme, Phys. Chem. Chem. Phys.
     2020, 22, 8499-8512. DOI: 10.1039/D0CP00502A
   
   for sTDA-xTB:
   * S. Grimme and C. Bannwarth, J. Chem. Phys., 2016, 145, 054103.
     DOI: 10.1063/1.4959605
   
   in the mass-spec context:
   * V. Asgeirsson, C. Bauer and S. Grimme, Chem. Sci., 2017, 8, 4879.
     DOI: 10.1039/c7sc00601b
   * J. Koopman and S. Grimme, ACS Omega 2019, 4, 12, 15120-15133.
     DOI: 10.1021/acsomega.9b02011
   
   for metadynamics refer to:
   * S. Grimme, J. Chem. Theory Comput., 2019, 155, 2847-2862
     DOI: 10.1021/acs.jctc.9b00143
   
   for SPH calculations refer to:
   * S. Spicher and S. Grimme, J. Chem. Theory Comput., 2021, 17, 1701-1714
     DOI: 10.1021/acs.jctc.0c01306
   
   for ONIOM refer to:
   * C. Plett, A. Katbashev, S. Ehlert, S. Grimme, M. Bursch,
     Phys. Chem. Chem. Phys., 2023, 25, 17860-17868. DOI: 10.1039/D3CP02178E
   
   for DIPRO refer to:
   * J. Kohn, N. Gildemeister, S. Grimme, D. Fazzi, A. Hansen,
     J. Chem. Phys., 2023, just accepted.
   
   for PTB refer to:
   * S. Grimme, M. Mueller, A. Hansen, J. Chem. Phys., 2023, 158, 124111.
     DOI: 10.1063/5.0137838
   
   with help from (in alphabetical order)
   P. Atkinson, C. Bannwarth, F. Bohle, G. Brandenburg, E. Caldeweyher
   M. Checinski, S. Dohm, S. Ehlert, S. Ehrlich, I. Gerasimov, C. Hölzer
   A. Katbashev, J. Kohn, J. Koopman, C. Lavigne, S. Lehtola, F. März, M. Müller,
   F. Musil, H. Neugebauer, J. Pisarek, C. Plett, P. Pracht, F. Pultar,
   J. Seibert, P. Shushkov, S. Spicher, M. Stahn, M. Steiner, T. Strunk,
   J. Stückrath, T. Rose, and J. Unsleber
   
 * started run on 2025/06/25 at 12:07:02.877     
$$$$$$$$$$$$$$$$$$$$$$$$$$$$$$$$$$$$$$$$$$$$$$$$$$$$$$$$$$$$$$$$$$$$$$$$
 CONSTRAINTS & SCANS: DEBUG SECTION
$$$$$$$$$$$$$$$$$$$$$$$$$$$$$$$$$$$$$$$$$$$$$$$$$$$$$$$$$$$$$$$$$$$$$$$$
   ID    Z sym.   atoms
    1    6 C      1, 3, 5
    2    7 N      2, 4, 6
    3    1 H      7-11
$$$$$$$$$$$$$$$$$$$$$$$$$$$$$$$$$$$$$$$$$$$$$$$$$$$$$$$$$$$$$$$$$$$$$$$$

           -------------------------------------------------
          |                Calculation Setup                |
           -------------------------------------------------

          program call               : C:\Users\nkapa\Downloads\xtb-6.7.1pre-windows-x86_64\xtb-6.7.1\bin\xtb.EXE dft_tmp\mol_404.xyz --gfn2 --parallel 8 --verbose
          coordinate file            : dft_tmp\mol_404.xyz
          xtbhome directory          : C:\Users\nkapa\AppData\Roaming\SPB_Data
          path for xtb               : C:\Users\nkapa\Downloads\xtb-6.7.1pre-windows-x86_64\xtb-6.7.1\share\xtb
          xcontrol input file        : dft_tmp\mol_404.xyz
          omp threads                :                     8


           -------------------------------------------------
          |                 G F N 2 - x T B                 |
           -------------------------------------------------

        Reference                      10.1021/acs.jctc.8b01176
      * Hamiltonian:
        H0-scaling (s, p, d)           1.850000    2.230000    2.230000
        zeta-weighting                 0.500000
      * Dispersion:
        s8                             2.700000
        a1                             0.520000
        a2                             5.000000
        s9                             5.000000
      * Repulsion:
        kExp                           1.500000    1.000000
        rExp                           1.000000
      * Coulomb:
        alpha                          2.000000
        third order                    shell-resolved
        anisotropic                    true
        a3                             3.000000
        a5                             4.000000
        cn-shift                       1.200000
        cn-exp                         4.000000
        max-rad                        5.000000


          ...................................................
          :                      SETUP                      :
          :.................................................:
          :  # basis functions                  29          :
          :  # atomic orbitals                  29          :
          :  # shells                           17          :
          :  # electrons                        32          :
          :  max. iterations                   250          :
          :  Hamiltonian                  GFN2-xTB          :
          :  restarted?                      false          :
          :  GBSA solvation                  false          :
          :  PC potential                    false          :
          :  electronic temp.          300.0000000     K    :
          :  accuracy                    1.0000000          :
          :  -> integral cutoff          0.2500000E+02      :
          :  -> integral neglect         0.1000000E-07      :
          :  -> SCF convergence          0.1000000E-05 Eh   :
          :  -> wf. convergence          0.1000000E-03 e    :
          :  Broyden damping             0.4000000          :
          :  net charge                          0          :
          :  unpaired electrons                  0          :
          ...................................................

 iter      E             dE          RMSdq      gap      omega  full diag
   1    -17.8623493 -0.178623E+02  0.372E+00    5.03       0.0  T
   2    -17.9157083 -0.533590E-01  0.306E+00    4.40       1.0  T
   3    -17.9322000 -0.164918E-01  0.171E+00    4.39       1.0  T
   4    -17.9320953  0.104728E-03  0.421E-01    4.28       1.0  T
   5    -17.9327094 -0.614136E-03  0.962E-02    4.21       1.0  T
   6    -17.9327199 -0.104582E-04  0.402E-02    4.22       1.0  T
   7    -17.9327239 -0.406760E-05  0.177E-02    4.21       1.7  T
   8    -17.9327242 -0.298363E-06  0.588E-03    4.22       5.1  T
   9    -17.9327245 -0.259963E-06  0.158E-03    4.22      19.1  T
  10    -17.9327245 -0.110347E-07  0.553E-04    4.22      54.6  T
  11    -17.9327245 -0.462972E-09  0.200E-04    4.22     150.4  T

   *** convergence criteria satisfied after 11 iterations ***

         #    Occupation            Energy/Eh            Energy/eV
      -------------------------------------------------------------
         1        2.0000           -0.7110749             -19.3493
       ...           ...                  ...                  ...
        10        2.0000           -0.5097222             -13.8702
        11        2.0000           -0.5038807             -13.7113
        12        2.0000           -0.4731054             -12.8739
        13        2.0000           -0.4392923             -11.9538
        14        2.0000           -0.4171187             -11.3504
        15        2.0000           -0.4112214             -11.1899
        16        2.0000           -0.3841785             -10.4540 (HOMO)
        17                         -0.2291987              -6.2368 (LUMO)
        18                         -0.1939605              -5.2779
        19                         -0.0261739              -0.7122
        20                          0.0886839               2.4132
        21                          0.0931758               2.5354
       ...                                ...                  ...
        29                          0.4567693              12.4293
      -------------------------------------------------------------
                  HL-Gap            0.1549798 Eh            4.2172 eV
             Fermi-level           -0.3066886 Eh           -8.3454 eV

 SCC (total)                   0 d,  0 h,  0 min,  0.004 sec
 SCC setup                      ...        0 min,  0.000 sec (  0.000%)
 Dispersion                     ...        0 min,  0.001 sec ( 24.999%)
 classical contributions        ...        0 min,  0.000 sec (  0.000%)
 integral evaluation            ...        0 min,  0.000 sec (  0.000%)
 iterations                     ...        0 min,  0.002 sec ( 50.003%)
 molecular gradient             ...        0 min,  0.001 sec ( 24.999%)
 printout                       ...        0 min,  0.000 sec (  0.000%)

         :::::::::::::::::::::::::::::::::::::::::::::::::::::
         ::                     SUMMARY                     ::
         :::::::::::::::::::::::::::::::::::::::::::::::::::::
         :: total energy             -17.731170400989 Eh    ::
         :: gradient norm              0.065732737576 Eh/a0 ::
         :: HOMO-LUMO gap              4.217214770202 eV    ::
         ::.................................................::
         :: HOMO orbital eigv.       -10.454028771335 eV    ::
         :: LUMO orbital eigv.        -6.236814001133 eV    ::
         ::.................................................::
         :: SCC energy               -17.932721247480 Eh    ::
         :: -> isotropic ES            0.019499153763 Eh    ::
         :: -> anisotropic ES          0.003944107974 Eh    ::
         :: -> anisotropic XC          0.019591662776 Eh    ::
         :: -> dispersion             -0.006513068287 Eh    ::
         :: repulsion energy           0.201550846491 Eh    ::
         :: add. restraining           0.000000000000 Eh    ::
         :: total charge              -0.000000000000 e     ::
         ::.................................................::
         :: atomisation energy         3.303088927790 Eh    ::
         :::::::::::::::::::::::::::::::::::::::::::::::::::::

           -------------------------------------------------
          |                Property Printout                |
           -------------------------------------------------

    * Orbital Energies and Occupations

         #    Occupation            Energy/Eh            Energy/eV
      -------------------------------------------------------------
         1        2.0000           -0.7110749             -19.3493
       ...           ...                  ...                  ...
         4        2.0000           -0.6222592             -16.9325
         5        2.0000           -0.5909893             -16.0816
         6        2.0000           -0.5773489             -15.7105
         7        2.0000           -0.5744258             -15.6309
         8        2.0000           -0.5520820             -15.0229
         9        2.0000           -0.5144781             -13.9997
        10        2.0000           -0.5097222             -13.8702
        11        2.0000           -0.5038807             -13.7113
        12        2.0000           -0.4731054             -12.8739
        13        2.0000           -0.4392923             -11.9538
        14        2.0000           -0.4171187             -11.3504
        15        2.0000           -0.4112214             -11.1899
        16        2.0000           -0.3841785             -10.4540 (HOMO)
        17                         -0.2291987              -6.2368 (LUMO)
        18                         -0.1939605              -5.2779
        19                         -0.0261739              -0.7122
        20                          0.0886839               2.4132
        21                          0.0931758               2.5354
        22                          0.1114079               3.0316
        23                          0.1531990               4.1688
        24                          0.1606514               4.3715
        25                          0.2023870               5.5072
        26                          0.2329481               6.3388
        27                          0.3930914              10.6966
       ...                                ...                  ...
        29                          0.4567693              12.4293
      -------------------------------------------------------------
                  HL-Gap            0.1549798 Eh            4.2172 eV
             Fermi-level           -0.3066886 Eh           -8.3454 eV

     #   Z          covCN         q      C6AA      α(0)
     1   6 C        3.678    -0.060    21.894     6.703
     2   7 N        2.986     0.096    19.575     6.571
     3   6 C        3.146     0.074    26.099     8.358
     4   7 N        1.878    -0.276    28.017     7.846
     5   6 C        3.185     0.110    25.145     8.183
     6   7 N        2.028    -0.243    27.099     7.721
     7   1 H        0.921     0.066     2.132     2.283
     8   1 H        0.922     0.069     2.095     2.264
     9   1 H        0.922     0.084     1.938     2.177
    10   1 H        0.925     0.039     2.469     2.457
    11   1 H        0.925     0.041     2.441     2.443

 Mol. C6AA /au·bohr⁶  :       1377.116899
 Mol. C8AA /au·bohr⁸  :      30737.643826
 Mol. α(0) /au        :         57.007049


Wiberg/Mayer (AO) data.
largest (>0.10) Wiberg bond orders for each atom

 ---------------------------------------------------------------------------
     #   Z sym  total        # sym  WBO       # sym  WBO       # sym  WBO
 ---------------------------------------------------------------------------
     1   6 C    3.963 --     2 N    0.992     7 H    0.979     9 H    0.978
                             8 H    0.971
     2   7 N    3.700 --     3 C    1.320     6 N    1.216     1 C    0.992
     3   6 C    3.962 --     4 N    1.468     2 N    1.320    10 H    0.965
                             6 N    0.147
     4   7 N    3.020 --     3 C    1.468     5 C    1.379
     5   6 C    3.969 --     6 N    1.498     4 N    1.379    11 H    0.967
     6   7 N    2.965 --     5 C    1.498     2 N    1.216     3 C    0.147
     7   1 H    0.996 --     1 C    0.979
     8   1 H    0.995 --     1 C    0.971
     9   1 H    0.993 --     1 C    0.978
    10   1 H    0.999 --     3 C    0.965
    11   1 H    0.998 --     5 C    0.967
 ---------------------------------------------------------------------------

Topologies differ in total number of bonds
Writing topology from bond orders to xtbtopo.mol

molecular dipole:
                 x           y           z       tot (Debye)
 q only:       -1.247      -0.067       0.120
   full:       -1.483       0.043       0.159       3.792
molecular quadrupole (traceless):
                xx          xy          yy          xz          yz          zz
 q only:        1.467      -1.392      -1.208      -0.485      -0.029      -0.259
  q+dip:        1.217      -3.507      -2.037      -0.774      -0.160       0.820
   full:        0.933      -3.644      -2.728      -0.613      -0.427       1.795


           -------------------------------------------------
          | TOTAL ENERGY              -17.731170400989 Eh   |
          | GRADIENT NORM               0.065732737576 Eh/α |
          | HOMO-LUMO GAP               4.217214770202 eV   |
           -------------------------------------------------
########################################################################
[WARNING] Runtime exception occurred
-2- restart_readRestart: Dimension missmatch in restart file.
-1- restart_readRestart: Number of electron missmatch in restart file.
########################################################################

------------------------------------------------------------------------
 unit  open   action     filename
  129 false : read       dft_tmp\mol_404.xyz
  129 false : read       dft_tmp\mol_404.xyz
  129 false : read       dft_tmp\mol_404.xyz
  129 false : read       C:\Users\nkapa\Downloads\xtb-6.7.1pre-windows-x86_64\xtb-6.7.1\share\xtb\param_gfn2-xtb.txt
  129 false : read       xtbrestart
  129 false : replaced   charges
  129 false : replaced   wbo
  129 false : replaced   xtbtopo.mol
  129 false : replaced   xtbrestart

------------------------------------------------------------------------
 * finished run on 2025/06/25 at 12:07:02.903     
------------------------------------------------------------------------
 total:
 * wall-time:     0 d,  0 h,  0 min,  0.025 sec
 *  cpu-time:     0 d,  0 h,  0 min,  0.141 sec
 * ratio c/w:     5.625 speedup
 SCF:
 * wall-time:     0 d,  0 h,  0 min,  0.005 sec
 *  cpu-time:     0 d,  0 h,  0 min,  0.016 sec
 * ratio c/w:     3.125 speedup

normal termination of xtb
