22

C 2.488992 0.228353 -0.149828
C 1.051501 0.268929 0.382273
C 0.165072 -0.831515 -0.249009
C -1.297059 -0.642888 0.211992
C -1.850468 0.720489 -0.241630
C -0.864279 1.827137 0.035356
O -1.260860 3.022005 0.068048
O 0.507462 1.565949 0.126842
O -3.060028 0.970262 0.427576
O -2.111611 -1.687446 -0.260959
O 0.626485 -2.116259 0.091198
O 3.137473 -0.935795 0.282393
H 2.481975 0.271902 -1.262322
H 3.040548 1.116296 0.232856
H 1.079655 0.124406 1.485466
H 0.204949 -0.733934 -1.356825
H -1.320947 -0.676439 1.324675
H -2.021155 0.687911 -1.343438
H -3.571887 1.614049 -0.129009
H -2.055730 -1.688489 -1.252528
H 0.580126 -2.201479 1.079598
H 4.049784 -0.903443 -0.106845
