      -----------------------------------------------------------      
     |                   =====================                   |     
     |                           x T B                           |     
     |                   =====================                   |     
     |                         S. Grimme                         |     
     |          Mulliken Center for Theoretical Chemistry        |     
     |                    University of Bonn                     |     
      -----------------------------------------------------------      

   * xtb version 6.7.1pre (5071a88) compiled by 'Marcel@Raven' on 2024-07-23

   xtb is free software: you can redistribute it and/or modify it under
   the terms of the GNU Lesser General Public License as published by
   the Free Software Foundation, either version 3 of the License, or
   (at your option) any later version.
   
   xtb is distributed in the hope that it will be useful,
   but WITHOUT ANY WARRANTY; without even the implied warranty of
   MERCHANTABILITY or FITNESS FOR A PARTICULAR PURPOSE.  See the
   GNU Lesser General Public License for more details.
   
   Cite this work as:
   * C. Bannwarth, E. Caldeweyher, S. Ehlert, A. Hansen, P. Pracht,
     J. Seibert, S. Spicher, S. Grimme, WIREs Comput. Mol. Sci., 2020, 11,
     e01493. DOI: 10.1002/wcms.1493
   
   for GFN2-xTB:
   * C. Bannwarth, S. Ehlert and S. Grimme., J. Chem. Theory Comput., 2019,
     15, 1652-1671. DOI: 10.1021/acs.jctc.8b01176
   for GFN1-xTB:
   * S. Grimme, C. Bannwarth, P. Shushkov, J. Chem. Theory Comput., 2017,
     13, 1989-2009. DOI: 10.1021/acs.jctc.7b00118
   for GFN0-xTB:
   * P. Pracht, E. Caldeweyher, S. Ehlert, S. Grimme, ChemRxiv, 2019, preprint.
     DOI: 10.26434/chemrxiv.8326202.v1
   for GFN-FF:
   * S. Spicher and S. Grimme, Angew. Chem. Int. Ed., 2020, 59, 15665-15673.
     DOI: 10.1002/anie.202004239
   
   for ALPB and GBSA implicit solvation:
   * S. Ehlert, M. Stahn, S. Spicher, S. Grimme, J. Chem. Theory Comput.,
     2021, 17, 4250-4261. DOI: 10.1021/acs.jctc.1c00471
   
   for ddCOSMO and CPCM-X implicit solvation:
   * M. Stahn, S. Ehlert, S. Grimme, J. Phys. Chem. A,
     2023, XX, XXXX-XXXX. DOI: 10.1021/acs.jpca.3c04382
   
   for DFT-D4:
   * E. Caldeweyher, C. Bannwarth and S. Grimme, J. Chem. Phys., 2017,
     147, 034112. DOI: 10.1063/1.4993215
   * E. Caldeweyher, S. Ehlert, A. Hansen, H. Neugebauer, S. Spicher,
     C. Bannwarth and S. Grimme, J. Chem. Phys., 2019, 150, 154122.
     DOI: 10.1063/1.5090222
   * E. Caldeweyher, J.-M. Mewes, S. Ehlert and S. Grimme, Phys. Chem. Chem. Phys.
     2020, 22, 8499-8512. DOI: 10.1039/D0CP00502A
   
   for sTDA-xTB:
   * S. Grimme and C. Bannwarth, J. Chem. Phys., 2016, 145, 054103.
     DOI: 10.1063/1.4959605
   
   in the mass-spec context:
   * V. Asgeirsson, C. Bauer and S. Grimme, Chem. Sci., 2017, 8, 4879.
     DOI: 10.1039/c7sc00601b
   * J. Koopman and S. Grimme, ACS Omega 2019, 4, 12, 15120-15133.
     DOI: 10.1021/acsomega.9b02011
   
   for metadynamics refer to:
   * S. Grimme, J. Chem. Theory Comput., 2019, 155, 2847-2862
     DOI: 10.1021/acs.jctc.9b00143
   
   for SPH calculations refer to:
   * S. Spicher and S. Grimme, J. Chem. Theory Comput., 2021, 17, 1701-1714
     DOI: 10.1021/acs.jctc.0c01306
   
   for ONIOM refer to:
   * C. Plett, A. Katbashev, S. Ehlert, S. Grimme, M. Bursch,
     Phys. Chem. Chem. Phys., 2023, 25, 17860-17868. DOI: 10.1039/D3CP02178E
   
   for DIPRO refer to:
   * J. Kohn, N. Gildemeister, S. Grimme, D. Fazzi, A. Hansen,
     J. Chem. Phys., 2023, just accepted.
   
   for PTB refer to:
   * S. Grimme, M. Mueller, A. Hansen, J. Chem. Phys., 2023, 158, 124111.
     DOI: 10.1063/5.0137838
   
   with help from (in alphabetical order)
   P. Atkinson, C. Bannwarth, F. Bohle, G. Brandenburg, E. Caldeweyher
   M. Checinski, S. Dohm, S. Ehlert, S. Ehrlich, I. Gerasimov, C. Hölzer
   A. Katbashev, J. Kohn, J. Koopman, C. Lavigne, S. Lehtola, F. März, M. Müller,
   F. Musil, H. Neugebauer, J. Pisarek, C. Plett, P. Pracht, F. Pultar,
   J. Seibert, P. Shushkov, S. Spicher, M. Stahn, M. Steiner, T. Strunk,
   J. Stückrath, T. Rose, and J. Unsleber
   
 * started run on 2025/06/25 at 12:06:22.817     
$$$$$$$$$$$$$$$$$$$$$$$$$$$$$$$$$$$$$$$$$$$$$$$$$$$$$$$$$$$$$$$$$$$$$$$$
 CONSTRAINTS & SCANS: DEBUG SECTION
$$$$$$$$$$$$$$$$$$$$$$$$$$$$$$$$$$$$$$$$$$$$$$$$$$$$$$$$$$$$$$$$$$$$$$$$
   ID    Z sym.   atoms
    1    6 C      1, 3, 4, 7, 8
    2    7 N      2, 5, 6
    3    1 H      9-21
$$$$$$$$$$$$$$$$$$$$$$$$$$$$$$$$$$$$$$$$$$$$$$$$$$$$$$$$$$$$$$$$$$$$$$$$

           -------------------------------------------------
          |                Calculation Setup                |
           -------------------------------------------------

          program call               : C:\Users\nkapa\Downloads\xtb-6.7.1pre-windows-x86_64\xtb-6.7.1\bin\xtb.EXE dft_tmp\mol_109.xyz --gfn2 --parallel 8 --verbose
          coordinate file            : dft_tmp\mol_109.xyz
          xtbhome directory          : C:\Users\nkapa\AppData\Roaming\SPB_Data
          path for xtb               : C:\Users\nkapa\Downloads\xtb-6.7.1pre-windows-x86_64\xtb-6.7.1\share\xtb
          xcontrol input file        : dft_tmp\mol_109.xyz
          omp threads                :                     8


           -------------------------------------------------
          |                 G F N 2 - x T B                 |
           -------------------------------------------------

        Reference                      10.1021/acs.jctc.8b01176
      * Hamiltonian:
        H0-scaling (s, p, d)           1.850000    2.230000    2.230000
        zeta-weighting                 0.500000
      * Dispersion:
        s8                             2.700000
        a1                             0.520000
        a2                             5.000000
        s9                             5.000000
      * Repulsion:
        kExp                           1.500000    1.000000
        rExp                           1.000000
      * Coulomb:
        alpha                          2.000000
        third order                    shell-resolved
        anisotropic                    true
        a3                             3.000000
        a5                             4.000000
        cn-shift                       1.200000
        cn-exp                         4.000000
        max-rad                        5.000000


          ...................................................
          :                      SETUP                      :
          :.................................................:
          :  # basis functions                  45          :
          :  # atomic orbitals                  45          :
          :  # shells                           29          :
          :  # electrons                        48          :
          :  max. iterations                   250          :
          :  Hamiltonian                  GFN2-xTB          :
          :  restarted?                      false          :
          :  GBSA solvation                  false          :
          :  PC potential                    false          :
          :  electronic temp.          300.0000000     K    :
          :  accuracy                    1.0000000          :
          :  -> integral cutoff          0.2500000E+02      :
          :  -> integral neglect         0.1000000E-07      :
          :  -> SCF convergence          0.1000000E-05 Eh   :
          :  -> wf. convergence          0.1000000E-03 e    :
          :  Broyden damping             0.4000000          :
          :  net charge                          0          :
          :  unpaired electrons                  0          :
          ...................................................

 iter      E             dE          RMSdq      gap      omega  full diag
   1    -26.3125332 -0.263125E+02  0.306E+00    3.79       0.0  T
   2    -26.3487107 -0.361775E-01  0.181E+00    4.02       1.0  T
   3    -26.3501845 -0.147382E-02  0.788E-01    3.67       1.0  T
   4    -26.3512427 -0.105819E-02  0.236E-01    3.75       1.0  T
   5    -26.3517603 -0.517549E-03  0.857E-02    3.70       1.0  T
   6    -26.3518329 -0.726154E-04  0.393E-02    3.72       1.0  T
   7    -26.3518366 -0.371879E-05  0.115E-02    3.72       1.9  T
   8    -26.3518369 -0.306200E-06  0.136E-03    3.72      16.0  T
   9    -26.3518369 -0.354276E-08  0.445E-04    3.72      49.0  T
  10    -26.3518369 -0.156593E-08  0.120E-04    3.72     181.8  T

   *** convergence criteria satisfied after 10 iterations ***

         #    Occupation            Energy/Eh            Energy/eV
      -------------------------------------------------------------
         1        2.0000           -0.6351589             -17.2836
       ...           ...                  ...                  ...
        18        2.0000           -0.4624613             -12.5842
        19        2.0000           -0.4603720             -12.5274
        20        2.0000           -0.4553294             -12.3901
        21        2.0000           -0.4295465             -11.6886
        22        2.0000           -0.3567555              -9.7078
        23        2.0000           -0.3473972              -9.4532
        24        2.0000           -0.3294086              -8.9637 (HOMO)
        25                         -0.1928426              -5.2475 (LUMO)
        26                         -0.0518091              -1.4098
        27                         -0.0054441              -0.1481
        28                          0.0645349               1.7561
        29                          0.0763001               2.0762
       ...                                ...                  ...
        45                          0.5148240              14.0091
      -------------------------------------------------------------
                  HL-Gap            0.1365661 Eh            3.7162 eV
             Fermi-level           -0.2611256 Eh           -7.1056 eV

 SCC (total)                   0 d,  0 h,  0 min,  0.007 sec
 SCC setup                      ...        0 min,  0.000 sec (  0.000%)
 Dispersion                     ...        0 min,  0.000 sec (  0.000%)
 classical contributions        ...        0 min,  0.000 sec (  0.000%)
 integral evaluation            ...        0 min,  0.001 sec ( 14.285%)
 iterations                     ...        0 min,  0.006 sec ( 85.715%)
 molecular gradient             ...        0 min,  0.000 sec (  0.000%)
 printout                       ...        0 min,  0.000 sec (  0.000%)

         :::::::::::::::::::::::::::::::::::::::::::::::::::::
         ::                     SUMMARY                     ::
         :::::::::::::::::::::::::::::::::::::::::::::::::::::
         :: total energy             -26.064306451369 Eh    ::
         :: gradient norm              0.072448891998 Eh/a0 ::
         :: HOMO-LUMO gap              3.716151388551 eV    ::
         ::.................................................::
         :: HOMO orbital eigv.        -8.963664847512 eV    ::
         :: LUMO orbital eigv.        -5.247513458961 eV    ::
         ::.................................................::
         :: SCC energy               -26.351736424874 Eh    ::
         :: -> isotropic ES            0.028304667165 Eh    ::
         :: -> anisotropic ES          0.009606124098 Eh    ::
         :: -> anisotropic XC          0.020922851887 Eh    ::
         :: -> dispersion             -0.014639622670 Eh    ::
         :: repulsion energy           0.287429973505 Eh    ::
         :: add. restraining           0.000000000000 Eh    ::
         :: total charge               0.000000000000 e     ::
         ::.................................................::
         :: atomisation energy         5.242603937553 Eh    ::
         :::::::::::::::::::::::::::::::::::::::::::::::::::::

           -------------------------------------------------
          |                Property Printout                |
           -------------------------------------------------

    * Orbital Energies and Occupations

         #    Occupation            Energy/Eh            Energy/eV
      -------------------------------------------------------------
         1        2.0000           -0.6351589             -17.2836
       ...           ...                  ...                  ...
        12        2.0000           -0.5083126             -13.8319
        13        2.0000           -0.5032505             -13.6941
        14        2.0000           -0.4882968             -13.2872
        15        2.0000           -0.4795931             -13.0504
        16        2.0000           -0.4754295             -12.9371
        17        2.0000           -0.4644457             -12.6382
        18        2.0000           -0.4624613             -12.5842
        19        2.0000           -0.4603720             -12.5274
        20        2.0000           -0.4553294             -12.3901
        21        2.0000           -0.4295465             -11.6886
        22        2.0000           -0.3567555              -9.7078
        23        2.0000           -0.3473972              -9.4532
        24        2.0000           -0.3294086              -8.9637 (HOMO)
        25                         -0.1928426              -5.2475 (LUMO)
        26                         -0.0518091              -1.4098
        27                         -0.0054441              -0.1481
        28                          0.0645349               1.7561
        29                          0.0763001               2.0762
        30                          0.0979964               2.6666
        31                          0.1236450               3.3646
        32                          0.1262382               3.4351
        33                          0.1292698               3.5176
        34                          0.1392762               3.7899
        35                          0.1590324               4.3275
       ...                                ...                  ...
        45                          0.5148240              14.0091
      -------------------------------------------------------------
                  HL-Gap            0.1365661 Eh            3.7162 eV
             Fermi-level           -0.2611256 Eh           -7.1056 eV

     #   Z          covCN         q      C6AA      α(0)
     1   6 C        3.676    -0.039    21.506     6.644
     2   7 N        2.724    -0.115    23.500     7.200
     3   6 C        3.676    -0.034    21.415     6.630
     4   6 C        2.738     0.200    23.734     7.976
     5   7 N        1.776    -0.394    31.128     8.262
     6   7 N        2.726    -0.182    24.944     7.418
     7   6 C        3.677    -0.024    21.231     6.601
     8   6 C        3.677    -0.022    21.197     6.596
     9   1 H        0.922     0.056     2.244     2.343
    10   1 H        0.922     0.044     2.392     2.419
    11   1 H        0.922     0.052     2.297     2.370
    12   1 H        0.922     0.044     2.402     2.424
    13   1 H        0.922     0.046     2.365     2.405
    14   1 H        0.922     0.041     2.435     2.440
    15   1 H        0.858     0.129     1.555     1.954
    16   1 H        0.922     0.023     2.687     2.563
    17   1 H        0.922     0.033     2.539     2.492
    18   1 H        0.921     0.040     2.446     2.446
    19   1 H        0.921     0.040     2.443     2.445
    20   1 H        0.922     0.027     2.633     2.538
    21   1 H        0.922     0.033     2.548     2.497

 Mol. C6AA /au·bohr⁶  :       3447.410996
 Mol. C8AA /au·bohr⁸  :      71437.193201
 Mol. α(0) /au        :         88.662043


Wiberg/Mayer (AO) data.
largest (>0.10) Wiberg bond orders for each atom

 ---------------------------------------------------------------------------
     #   Z sym  total        # sym  WBO       # sym  WBO       # sym  WBO
 ---------------------------------------------------------------------------
     1   6 C    3.973 --     2 N    1.004    10 H    0.982    11 H    0.978
                             9 H    0.976
     2   7 N    3.388 --     4 C    1.137     3 C    1.009     1 C    1.004
                             5 N    0.148
     3   6 C    3.979 --     2 N    1.009    13 H    0.981    12 H    0.980
                            14 H    0.976
     4   6 C    3.960 --     5 N    1.728     2 N    1.137     6 N    1.023
     5   7 N    2.979 --     4 C    1.728    15 H    0.953     2 N    0.148
     6   7 N    3.211 --     4 C    1.023     7 C    1.005     8 C    1.003
     7   6 C    3.985 --     6 N    1.005    18 H    0.984    16 H    0.979
                            17 H    0.977
     8   6 C    3.983 --     6 N    1.003    19 H    0.983    20 H    0.981
                            21 H    0.977
     9   1 H    0.997 --     1 C    0.976
    10   1 H    0.998 --     1 C    0.982
    11   1 H    0.997 --     1 C    0.978
    12   1 H    0.998 --     3 C    0.980
    13   1 H    0.997 --     3 C    0.981
    14   1 H    0.998 --     3 C    0.976
    15   1 H    0.983 --     5 N    0.953
    16   1 H    0.999 --     7 C    0.979
    17   1 H    0.999 --     7 C    0.977
    18   1 H    0.998 --     7 C    0.984
    19   1 H    0.998 --     8 C    0.983
    20   1 H    0.999 --     8 C    0.981
    21   1 H    0.999 --     8 C    0.977
 ---------------------------------------------------------------------------

Topologies differ in total number of bonds
Writing topology from bond orders to xtbtopo.mol

molecular dipole:
                 x           y           z       tot (Debye)
 q only:        0.661      -0.410      -0.393
   full:        0.566      -0.690      -0.728       2.928
molecular quadrupole (traceless):
                xx          xy          yy          xz          yz          zz
 q only:        2.613       2.834      -1.387       2.922      -0.342      -1.226
  q+dip:        5.734       2.780      -2.705       3.774      -2.229      -3.029
   full:        5.074       3.166      -2.355       3.600      -2.402      -2.719


           -------------------------------------------------
          | TOTAL ENERGY              -26.064306451369 Eh   |
          | GRADIENT NORM               0.072448891998 Eh/α |
          | HOMO-LUMO GAP               3.716151388551 eV   |
           -------------------------------------------------
########################################################################
[WARNING] Runtime exception occurred
-2- restart_readRestart: Dimension missmatch in restart file.
-1- restart_readRestart: Number of electron missmatch in restart file.
########################################################################

------------------------------------------------------------------------
 unit  open   action     filename
  129 false : read       dft_tmp\mol_109.xyz
  129 false : read       dft_tmp\mol_109.xyz
  129 false : read       dft_tmp\mol_109.xyz
  129 false : read       C:\Users\nkapa\Downloads\xtb-6.7.1pre-windows-x86_64\xtb-6.7.1\share\xtb\param_gfn2-xtb.txt
  129 false : read       xtbrestart
  129 false : replaced   charges
  129 false : replaced   wbo
  129 false : replaced   xtbtopo.mol
  129 false : replaced   xtbrestart

------------------------------------------------------------------------
 * finished run on 2025/06/25 at 12:06:22.850     
------------------------------------------------------------------------
 total:
 * wall-time:     0 d,  0 h,  0 min,  0.032 sec
 *  cpu-time:     0 d,  0 h,  0 min,  0.250 sec
 * ratio c/w:     7.813 speedup
 SCF:
 * wall-time:     0 d,  0 h,  0 min,  0.007 sec
 *  cpu-time:     0 d,  0 h,  0 min,  0.000 sec
 * ratio c/w:     0.000 speedup

normal termination of xtb
