      -----------------------------------------------------------      
     |                   =====================                   |     
     |                           x T B                           |     
     |                   =====================                   |     
     |                         S. Grimme                         |     
     |          Mulliken Center for Theoretical Chemistry        |     
     |                    University of Bonn                     |     
      -----------------------------------------------------------      

   * xtb version 6.7.1pre (5071a88) compiled by 'Marcel@Raven' on 2024-07-23

   xtb is free software: you can redistribute it and/or modify it under
   the terms of the GNU Lesser General Public License as published by
   the Free Software Foundation, either version 3 of the License, or
   (at your option) any later version.
   
   xtb is distributed in the hope that it will be useful,
   but WITHOUT ANY WARRANTY; without even the implied warranty of
   MERCHANTABILITY or FITNESS FOR A PARTICULAR PURPOSE.  See the
   GNU Lesser General Public License for more details.
   
   Cite this work as:
   * C. Bannwarth, E. Caldeweyher, S. Ehlert, A. Hansen, P. Pracht,
     J. Seibert, S. Spicher, S. Grimme, WIREs Comput. Mol. Sci., 2020, 11,
     e01493. DOI: 10.1002/wcms.1493
   
   for GFN2-xTB:
   * C. Bannwarth, S. Ehlert and S. Grimme., J. Chem. Theory Comput., 2019,
     15, 1652-1671. DOI: 10.1021/acs.jctc.8b01176
   for GFN1-xTB:
   * S. Grimme, C. Bannwarth, P. Shushkov, J. Chem. Theory Comput., 2017,
     13, 1989-2009. DOI: 10.1021/acs.jctc.7b00118
   for GFN0-xTB:
   * P. Pracht, E. Caldeweyher, S. Ehlert, S. Grimme, ChemRxiv, 2019, preprint.
     DOI: 10.26434/chemrxiv.8326202.v1
   for GFN-FF:
   * S. Spicher and S. Grimme, Angew. Chem. Int. Ed., 2020, 59, 15665-15673.
     DOI: 10.1002/anie.202004239
   
   for ALPB and GBSA implicit solvation:
   * S. Ehlert, M. Stahn, S. Spicher, S. Grimme, J. Chem. Theory Comput.,
     2021, 17, 4250-4261. DOI: 10.1021/acs.jctc.1c00471
   
   for ddCOSMO and CPCM-X implicit solvation:
   * M. Stahn, S. Ehlert, S. Grimme, J. Phys. Chem. A,
     2023, XX, XXXX-XXXX. DOI: 10.1021/acs.jpca.3c04382
   
   for DFT-D4:
   * E. Caldeweyher, C. Bannwarth and S. Grimme, J. Chem. Phys., 2017,
     147, 034112. DOI: 10.1063/1.4993215
   * E. Caldeweyher, S. Ehlert, A. Hansen, H. Neugebauer, S. Spicher,
     C. Bannwarth and S. Grimme, J. Chem. Phys., 2019, 150, 154122.
     DOI: 10.1063/1.5090222
   * E. Caldeweyher, J.-M. Mewes, S. Ehlert and S. Grimme, Phys. Chem. Chem. Phys.
     2020, 22, 8499-8512. DOI: 10.1039/D0CP00502A
   
   for sTDA-xTB:
   * S. Grimme and C. Bannwarth, J. Chem. Phys., 2016, 145, 054103.
     DOI: 10.1063/1.4959605
   
   in the mass-spec context:
   * V. Asgeirsson, C. Bauer and S. Grimme, Chem. Sci., 2017, 8, 4879.
     DOI: 10.1039/c7sc00601b
   * J. Koopman and S. Grimme, ACS Omega 2019, 4, 12, 15120-15133.
     DOI: 10.1021/acsomega.9b02011
   
   for metadynamics refer to:
   * S. Grimme, J. Chem. Theory Comput., 2019, 155, 2847-2862
     DOI: 10.1021/acs.jctc.9b00143
   
   for SPH calculations refer to:
   * S. Spicher and S. Grimme, J. Chem. Theory Comput., 2021, 17, 1701-1714
     DOI: 10.1021/acs.jctc.0c01306
   
   for ONIOM refer to:
   * C. Plett, A. Katbashev, S. Ehlert, S. Grimme, M. Bursch,
     Phys. Chem. Chem. Phys., 2023, 25, 17860-17868. DOI: 10.1039/D3CP02178E
   
   for DIPRO refer to:
   * J. Kohn, N. Gildemeister, S. Grimme, D. Fazzi, A. Hansen,
     J. Chem. Phys., 2023, just accepted.
   
   for PTB refer to:
   * S. Grimme, M. Mueller, A. Hansen, J. Chem. Phys., 2023, 158, 124111.
     DOI: 10.1063/5.0137838
   
   with help from (in alphabetical order)
   P. Atkinson, C. Bannwarth, F. Bohle, G. Brandenburg, E. Caldeweyher
   M. Checinski, S. Dohm, S. Ehlert, S. Ehrlich, I. Gerasimov, C. Hölzer
   A. Katbashev, J. Kohn, J. Koopman, C. Lavigne, S. Lehtola, F. März, M. Müller,
   F. Musil, H. Neugebauer, J. Pisarek, C. Plett, P. Pracht, F. Pultar,
   J. Seibert, P. Shushkov, S. Spicher, M. Stahn, M. Steiner, T. Strunk,
   J. Stückrath, T. Rose, and J. Unsleber
   
 * started run on 2025/06/25 at 12:06:17.163     
$$$$$$$$$$$$$$$$$$$$$$$$$$$$$$$$$$$$$$$$$$$$$$$$$$$$$$$$$$$$$$$$$$$$$$$$
 CONSTRAINTS & SCANS: DEBUG SECTION
$$$$$$$$$$$$$$$$$$$$$$$$$$$$$$$$$$$$$$$$$$$$$$$$$$$$$$$$$$$$$$$$$$$$$$$$
   ID    Z sym.   atoms
    1    6 C      1, 3-7
    2    8 O      2, 8-12
    3    1 H      13-20
$$$$$$$$$$$$$$$$$$$$$$$$$$$$$$$$$$$$$$$$$$$$$$$$$$$$$$$$$$$$$$$$$$$$$$$$

           -------------------------------------------------
          |                Calculation Setup                |
           -------------------------------------------------

          program call               : C:\Users\nkapa\Downloads\xtb-6.7.1pre-windows-x86_64\xtb-6.7.1\bin\xtb.EXE dft_tmp\mol_73.xyz --gfn2 --parallel 8 --verbose
          coordinate file            : dft_tmp\mol_73.xyz
          xtbhome directory          : C:\Users\nkapa\AppData\Roaming\SPB_Data
          path for xtb               : C:\Users\nkapa\Downloads\xtb-6.7.1pre-windows-x86_64\xtb-6.7.1\share\xtb
          xcontrol input file        : dft_tmp\mol_73.xyz
          omp threads                :                     8


           -------------------------------------------------
          |                 G F N 2 - x T B                 |
           -------------------------------------------------

        Reference                      10.1021/acs.jctc.8b01176
      * Hamiltonian:
        H0-scaling (s, p, d)           1.850000    2.230000    2.230000
        zeta-weighting                 0.500000
      * Dispersion:
        s8                             2.700000
        a1                             0.520000
        a2                             5.000000
        s9                             5.000000
      * Repulsion:
        kExp                           1.500000    1.000000
        rExp                           1.000000
      * Coulomb:
        alpha                          2.000000
        third order                    shell-resolved
        anisotropic                    true
        a3                             3.000000
        a5                             4.000000
        cn-shift                       1.200000
        cn-exp                         4.000000
        max-rad                        5.000000


          ...................................................
          :                      SETUP                      :
          :.................................................:
          :  # basis functions                  56          :
          :  # atomic orbitals                  56          :
          :  # shells                           32          :
          :  # electrons                        68          :
          :  max. iterations                   250          :
          :  Hamiltonian                  GFN2-xTB          :
          :  restarted?                      false          :
          :  GBSA solvation                  false          :
          :  PC potential                    false          :
          :  electronic temp.          300.0000000     K    :
          :  accuracy                    1.0000000          :
          :  -> integral cutoff          0.2500000E+02      :
          :  -> integral neglect         0.1000000E-07      :
          :  -> SCF convergence          0.1000000E-05 Eh   :
          :  -> wf. convergence          0.1000000E-03 e    :
          :  Broyden damping             0.4000000          :
          :  net charge                          0          :
          :  unpaired electrons                  0          :
          ...................................................

 iter      E             dE          RMSdq      gap      omega  full diag
   1    -41.4655158 -0.414655E+02  0.526E+00    3.79       0.0  T
   2    -41.5273867 -0.618710E-01  0.268E+00    2.97       1.0  T
   3    -41.5288110 -0.142423E-02  0.169E+00    3.23       1.0  T
   4    -41.5425362 -0.137252E-01  0.199E-01    2.99       1.0  T
   5    -41.5427346 -0.198341E-03  0.722E-02    3.07       1.0  T
   6    -41.5427528 -0.182037E-04  0.326E-02    3.07       1.0  T
   7    -41.5427538 -0.998104E-06  0.895E-03    3.06       2.5  T
   8    -41.5427543 -0.541019E-06  0.281E-03    3.06       7.9  T
   9    -41.5427543 -0.127817E-07  0.125E-03    3.06      17.9  T
  10    -41.5427543 -0.789046E-08  0.498E-04    3.06      44.9  T
  11    -41.5427543 -0.126229E-08  0.242E-04    3.06      92.5  T

   *** convergence criteria satisfied after 11 iterations ***

         #    Occupation            Energy/Eh            Energy/eV
      -------------------------------------------------------------
         1        2.0000           -0.7675051             -20.8849
       ...           ...                  ...                  ...
        28        2.0000           -0.4938319             -13.4378
        29        2.0000           -0.4815194             -13.1028
        30        2.0000           -0.4743610             -12.9080
        31        2.0000           -0.4605567             -12.5324
        32        2.0000           -0.4549606             -12.3801
        33        2.0000           -0.4304972             -11.7144
        34        2.0000           -0.4252642             -11.5720 (HOMO)
        35                         -0.3127188              -8.5095 (LUMO)
        36                         -0.2808659              -7.6428
        37                         -0.0602529              -1.6396
        38                         -0.0393342              -1.0703
        39                         -0.0091483              -0.2489
       ...                                ...                  ...
        56                          0.4975992              13.5404
      -------------------------------------------------------------
                  HL-Gap            0.1125454 Eh            3.0625 eV
             Fermi-level           -0.3689915 Eh          -10.0408 eV

 SCC (total)                   0 d,  0 h,  0 min,  0.009 sec
 SCC setup                      ...        0 min,  0.000 sec (  0.000%)
 Dispersion                     ...        0 min,  0.001 sec ( 11.113%)
 classical contributions        ...        0 min,  0.000 sec (  0.000%)
 integral evaluation            ...        0 min,  0.001 sec ( 11.110%)
 iterations                     ...        0 min,  0.006 sec ( 66.667%)
 molecular gradient             ...        0 min,  0.001 sec ( 11.110%)
 printout                       ...        0 min,  0.000 sec (  0.000%)

         :::::::::::::::::::::::::::::::::::::::::::::::::::::
         ::                     SUMMARY                     ::
         :::::::::::::::::::::::::::::::::::::::::::::::::::::
         :: total energy             -41.266075266850 Eh    ::
         :: gradient norm              0.165130601689 Eh/a0 ::
         :: HOMO-LUMO gap              3.062515794689 eV    ::
         ::.................................................::
         :: HOMO orbital eigv.       -11.572027423141 eV    ::
         :: LUMO orbital eigv.        -8.509511628452 eV    ::
         ::.................................................::
         :: SCC energy               -41.542654087911 Eh    ::
         :: -> isotropic ES            0.126071383864 Eh    ::
         :: -> anisotropic ES          0.005927005157 Eh    ::
         :: -> anisotropic XC         -0.005607894064 Eh    ::
         :: -> dispersion             -0.016370318707 Eh    ::
         :: repulsion energy           0.276578821061 Eh    ::
         :: add. restraining           0.000000000000 Eh    ::
         :: total charge               0.000000000000 e     ::
         ::.................................................::
         :: atomisation energy         5.786179545776 Eh    ::
         :::::::::::::::::::::::::::::::::::::::::::::::::::::

           -------------------------------------------------
          |                Property Printout                |
           -------------------------------------------------

    * Orbital Energies and Occupations

         #    Occupation            Energy/Eh            Energy/eV
      -------------------------------------------------------------
         1        2.0000           -0.7675051             -20.8849
       ...           ...                  ...                  ...
        22        2.0000           -0.5541307             -15.0787
        23        2.0000           -0.5459375             -14.8557
        24        2.0000           -0.5383306             -14.6487
        25        2.0000           -0.5327108             -14.4958
        26        2.0000           -0.5201084             -14.1529
        27        2.0000           -0.5035759             -13.7030
        28        2.0000           -0.4938319             -13.4378
        29        2.0000           -0.4815194             -13.1028
        30        2.0000           -0.4743610             -12.9080
        31        2.0000           -0.4605567             -12.5324
        32        2.0000           -0.4549606             -12.3801
        33        2.0000           -0.4304972             -11.7144
        34        2.0000           -0.4252642             -11.5720 (HOMO)
        35                         -0.3127188              -8.5095 (LUMO)
        36                         -0.2808659              -7.6428
        37                         -0.0602529              -1.6396
        38                         -0.0393342              -1.0703
        39                         -0.0091483              -0.2489
        40                          0.0073860               0.2010
        41                          0.0409209               1.1135
        42                          0.0439676               1.1964
        43                          0.0551383               1.5004
        44                          0.0623183               1.6958
        45                          0.0779830               2.1220
       ...                                ...                  ...
        56                          0.4975992              13.5404
      -------------------------------------------------------------
                  HL-Gap            0.1125454 Eh            3.0625 eV
             Fermi-level           -0.3689915 Eh          -10.0408 eV

     #   Z          covCN         q      C6AA      α(0)
     1   6 C        2.760     0.193    23.883     8.003
     2   8 O        0.856    -0.317    20.085     6.009
     3   6 C        3.722     0.095    19.115     6.244
     4   6 C        3.771     0.086    19.192     6.243
     5   6 C        3.752     0.093    19.096     6.232
     6   6 C        3.730     0.094    19.119     6.242
     7   6 C        2.770     0.337    21.271     7.553
     8   8 O        0.856    -0.345    20.611     6.087
     9   8 O        1.704    -0.229    17.795     5.695
    10   8 O        1.653    -0.400    20.859     6.165
    11   8 O        1.651    -0.421    21.269     6.226
    12   8 O        1.652    -0.401    20.872     6.167
    13   1 H        0.925     0.060     2.195     2.317
    14   1 H        0.921     0.086     1.921     2.167
    15   1 H        0.921     0.060     2.196     2.318
    16   1 H        0.920     0.022     2.698     2.569
    17   1 H        0.921     0.054     2.274     2.359
    18   1 H        0.801     0.318     0.670     1.286
    19   1 H        0.801     0.304     0.710     1.324
    20   1 H        0.801     0.311     0.689     1.304

 Mol. C6AA /au·bohr⁶  :       4067.868192
 Mol. C8AA /au·bohr⁸  :      90182.263967
 Mol. α(0) /au        :         92.509500


Wiberg/Mayer (AO) data.
largest (>0.10) Wiberg bond orders for each atom

 ---------------------------------------------------------------------------
     #   Z sym  total        # sym  WBO       # sym  WBO       # sym  WBO
 ---------------------------------------------------------------------------
     1   6 C    3.905 --     2 O    1.931     3 C    0.970    13 H    0.939
     2   8 O    2.075 --     1 C    1.931
     3   6 C    3.962 --    12 O    1.006     1 C    0.970    14 H    0.956
                             4 C    0.940
     4   6 C    3.934 --     9 O    0.964    15 H    0.956     5 C    0.952
                             3 C    0.940
     5   6 C    3.961 --    11 O    1.010    16 H    0.967     6 C    0.958
                             4 C    0.952
     6   6 C    3.971 --    10 O    1.007     7 C    0.966     5 C    0.958
                            17 H    0.948
     7   6 C    3.927 --     8 O    1.783     9 O    1.113     6 C    0.966
     8   8 O    2.057 --     7 C    1.783     9 O    0.170
     9   8 O    2.332 --     7 C    1.113     4 C    0.964     8 O    0.170
    10   8 O    1.984 --     6 C    1.007    18 H    0.884
    11   8 O    1.982 --     5 C    1.010    19 H    0.893
    12   8 O    1.999 --     3 C    1.006    20 H    0.884
    13   1 H    0.996 --     1 C    0.939
    14   1 H    0.993 --     3 C    0.956
    15   1 H    0.996 --     4 C    0.956
    16   1 H    0.999 --     5 C    0.967
    17   1 H    0.997 --     6 C    0.948
    18   1 H    0.899 --    10 O    0.884
    19   1 H    0.907 --    11 O    0.893
    20   1 H    0.903 --    12 O    0.884
 ---------------------------------------------------------------------------

Topologies differ in total number of bonds
Writing topology from bond orders to xtbtopo.mol

molecular dipole:
                 x           y           z       tot (Debye)
 q only:        0.239       0.049      -1.943
   full:        0.258       0.332      -2.558       6.589
molecular quadrupole (traceless):
                xx          xy          yy          xz          yz          zz
 q only:        1.787      -2.123       5.286     -10.948      -1.925      -7.073
  q+dip:        2.566      -1.809       7.302     -13.455      -3.167      -9.868
   full:        2.136      -1.589       7.471     -14.035      -3.323      -9.606


           -------------------------------------------------
          | TOTAL ENERGY              -41.266075266850 Eh   |
          | GRADIENT NORM               0.165130601689 Eh/α |
          | HOMO-LUMO GAP               3.062515794689 eV   |
           -------------------------------------------------
########################################################################
[WARNING] Runtime exception occurred
-2- restart_readRestart: Dimension missmatch in restart file.
-1- restart_readRestart: Number of electron missmatch in restart file.
########################################################################

------------------------------------------------------------------------
 unit  open   action     filename
  129 false : read       dft_tmp\mol_73.xyz
  129 false : read       dft_tmp\mol_73.xyz
  129 false : read       dft_tmp\mol_73.xyz
  129 false : read       C:\Users\nkapa\Downloads\xtb-6.7.1pre-windows-x86_64\xtb-6.7.1\share\xtb\param_gfn2-xtb.txt
  129 false : read       xtbrestart
  129 false : replaced   charges
  129 false : replaced   wbo
  129 false : replaced   xtbtopo.mol
  129 false : replaced   xtbrestart

------------------------------------------------------------------------
 * finished run on 2025/06/25 at 12:06:17.203     
------------------------------------------------------------------------
 total:
 * wall-time:     0 d,  0 h,  0 min,  0.039 sec
 *  cpu-time:     0 d,  0 h,  0 min,  0.125 sec
 * ratio c/w:     3.205 speedup
 SCF:
 * wall-time:     0 d,  0 h,  0 min,  0.010 sec
 *  cpu-time:     0 d,  0 h,  0 min,  0.125 sec
 * ratio c/w:    12.500 speedup

normal termination of xtb
