      -----------------------------------------------------------      
     |                   =====================                   |     
     |                           x T B                           |     
     |                   =====================                   |     
     |                         S. Grimme                         |     
     |          Mulliken Center for Theoretical Chemistry        |     
     |                    University of Bonn                     |     
      -----------------------------------------------------------      

   * xtb version 6.7.1pre (5071a88) compiled by 'Marcel@Raven' on 2024-07-23

   xtb is free software: you can redistribute it and/or modify it under
   the terms of the GNU Lesser General Public License as published by
   the Free Software Foundation, either version 3 of the License, or
   (at your option) any later version.
   
   xtb is distributed in the hope that it will be useful,
   but WITHOUT ANY WARRANTY; without even the implied warranty of
   MERCHANTABILITY or FITNESS FOR A PARTICULAR PURPOSE.  See the
   GNU Lesser General Public License for more details.
   
   Cite this work as:
   * C. Bannwarth, E. Caldeweyher, S. Ehlert, A. Hansen, P. Pracht,
     J. Seibert, S. Spicher, S. Grimme, WIREs Comput. Mol. Sci., 2020, 11,
     e01493. DOI: 10.1002/wcms.1493
   
   for GFN2-xTB:
   * C. Bannwarth, S. Ehlert and S. Grimme., J. Chem. Theory Comput., 2019,
     15, 1652-1671. DOI: 10.1021/acs.jctc.8b01176
   for GFN1-xTB:
   * S. Grimme, C. Bannwarth, P. Shushkov, J. Chem. Theory Comput., 2017,
     13, 1989-2009. DOI: 10.1021/acs.jctc.7b00118
   for GFN0-xTB:
   * P. Pracht, E. Caldeweyher, S. Ehlert, S. Grimme, ChemRxiv, 2019, preprint.
     DOI: 10.26434/chemrxiv.8326202.v1
   for GFN-FF:
   * S. Spicher and S. Grimme, Angew. Chem. Int. Ed., 2020, 59, 15665-15673.
     DOI: 10.1002/anie.202004239
   
   for ALPB and GBSA implicit solvation:
   * S. Ehlert, M. Stahn, S. Spicher, S. Grimme, J. Chem. Theory Comput.,
     2021, 17, 4250-4261. DOI: 10.1021/acs.jctc.1c00471
   
   for ddCOSMO and CPCM-X implicit solvation:
   * M. Stahn, S. Ehlert, S. Grimme, J. Phys. Chem. A,
     2023, XX, XXXX-XXXX. DOI: 10.1021/acs.jpca.3c04382
   
   for DFT-D4:
   * E. Caldeweyher, C. Bannwarth and S. Grimme, J. Chem. Phys., 2017,
     147, 034112. DOI: 10.1063/1.4993215
   * E. Caldeweyher, S. Ehlert, A. Hansen, H. Neugebauer, S. Spicher,
     C. Bannwarth and S. Grimme, J. Chem. Phys., 2019, 150, 154122.
     DOI: 10.1063/1.5090222
   * E. Caldeweyher, J.-M. Mewes, S. Ehlert and S. Grimme, Phys. Chem. Chem. Phys.
     2020, 22, 8499-8512. DOI: 10.1039/D0CP00502A
   
   for sTDA-xTB:
   * S. Grimme and C. Bannwarth, J. Chem. Phys., 2016, 145, 054103.
     DOI: 10.1063/1.4959605
   
   in the mass-spec context:
   * V. Asgeirsson, C. Bauer and S. Grimme, Chem. Sci., 2017, 8, 4879.
     DOI: 10.1039/c7sc00601b
   * J. Koopman and S. Grimme, ACS Omega 2019, 4, 12, 15120-15133.
     DOI: 10.1021/acsomega.9b02011
   
   for metadynamics refer to:
   * S. Grimme, J. Chem. Theory Comput., 2019, 155, 2847-2862
     DOI: 10.1021/acs.jctc.9b00143
   
   for SPH calculations refer to:
   * S. Spicher and S. Grimme, J. Chem. Theory Comput., 2021, 17, 1701-1714
     DOI: 10.1021/acs.jctc.0c01306
   
   for ONIOM refer to:
   * C. Plett, A. Katbashev, S. Ehlert, S. Grimme, M. Bursch,
     Phys. Chem. Chem. Phys., 2023, 25, 17860-17868. DOI: 10.1039/D3CP02178E
   
   for DIPRO refer to:
   * J. Kohn, N. Gildemeister, S. Grimme, D. Fazzi, A. Hansen,
     J. Chem. Phys., 2023, just accepted.
   
   for PTB refer to:
   * S. Grimme, M. Mueller, A. Hansen, J. Chem. Phys., 2023, 158, 124111.
     DOI: 10.1063/5.0137838
   
   with help from (in alphabetical order)
   P. Atkinson, C. Bannwarth, F. Bohle, G. Brandenburg, E. Caldeweyher
   M. Checinski, S. Dohm, S. Ehlert, S. Ehrlich, I. Gerasimov, C. Hölzer
   A. Katbashev, J. Kohn, J. Koopman, C. Lavigne, S. Lehtola, F. März, M. Müller,
   F. Musil, H. Neugebauer, J. Pisarek, C. Plett, P. Pracht, F. Pultar,
   J. Seibert, P. Shushkov, S. Spicher, M. Stahn, M. Steiner, T. Strunk,
   J. Stückrath, T. Rose, and J. Unsleber
   
 * started run on 2025/06/25 at 12:07:00.583     
$$$$$$$$$$$$$$$$$$$$$$$$$$$$$$$$$$$$$$$$$$$$$$$$$$$$$$$$$$$$$$$$$$$$$$$$
 CONSTRAINTS & SCANS: DEBUG SECTION
$$$$$$$$$$$$$$$$$$$$$$$$$$$$$$$$$$$$$$$$$$$$$$$$$$$$$$$$$$$$$$$$$$$$$$$$
   ID    Z sym.   atoms
    1    6 C      1, 3-6
    2    7 N      2
    3    8 O      7
    4    1 H      8-16
$$$$$$$$$$$$$$$$$$$$$$$$$$$$$$$$$$$$$$$$$$$$$$$$$$$$$$$$$$$$$$$$$$$$$$$$

           -------------------------------------------------
          |                Calculation Setup                |
           -------------------------------------------------

          program call               : C:\Users\nkapa\Downloads\xtb-6.7.1pre-windows-x86_64\xtb-6.7.1\bin\xtb.EXE dft_tmp\mol_385.xyz --gfn2 --parallel 8 --verbose
          coordinate file            : dft_tmp\mol_385.xyz
          xtbhome directory          : C:\Users\nkapa\AppData\Roaming\SPB_Data
          path for xtb               : C:\Users\nkapa\Downloads\xtb-6.7.1pre-windows-x86_64\xtb-6.7.1\share\xtb
          xcontrol input file        : dft_tmp\mol_385.xyz
          omp threads                :                     8


           -------------------------------------------------
          |                 G F N 2 - x T B                 |
           -------------------------------------------------

        Reference                      10.1021/acs.jctc.8b01176
      * Hamiltonian:
        H0-scaling (s, p, d)           1.850000    2.230000    2.230000
        zeta-weighting                 0.500000
      * Dispersion:
        s8                             2.700000
        a1                             0.520000
        a2                             5.000000
        s9                             5.000000
      * Repulsion:
        kExp                           1.500000    1.000000
        rExp                           1.000000
      * Coulomb:
        alpha                          2.000000
        third order                    shell-resolved
        anisotropic                    true
        a3                             3.000000
        a5                             4.000000
        cn-shift                       1.200000
        cn-exp                         4.000000
        max-rad                        5.000000


          ...................................................
          :                      SETUP                      :
          :.................................................:
          :  # basis functions                  37          :
          :  # atomic orbitals                  37          :
          :  # shells                           23          :
          :  # electrons                        40          :
          :  max. iterations                   250          :
          :  Hamiltonian                  GFN2-xTB          :
          :  restarted?                      false          :
          :  GBSA solvation                  false          :
          :  PC potential                    false          :
          :  electronic temp.          300.0000000     K    :
          :  accuracy                    1.0000000          :
          :  -> integral cutoff          0.2500000E+02      :
          :  -> integral neglect         0.1000000E-07      :
          :  -> SCF convergence          0.1000000E-05 Eh   :
          :  -> wf. convergence          0.1000000E-03 e    :
          :  Broyden damping             0.4000000          :
          :  net charge                          0          :
          :  unpaired electrons                  0          :
          ...................................................

 iter      E             dE          RMSdq      gap      omega  full diag
   1    -22.4601242 -0.224601E+02  0.362E+00    4.35       0.0  T
   2    -22.5265877 -0.664635E-01  0.203E+00    4.30       1.0  T
   3    -22.5312447 -0.465693E-02  0.116E+00    4.50       1.0  T
   4    -22.5319201 -0.675418E-03  0.203E-01    4.37       1.0  T
   5    -22.5324419 -0.521797E-03  0.817E-02    4.47       1.0  T
   6    -22.5324578 -0.158863E-04  0.419E-02    4.45       1.0  T
   7    -22.5324585 -0.767367E-06  0.831E-03    4.45       3.0  T
   8    -22.5324588 -0.243793E-06  0.331E-03    4.45       7.6  T
   9    -22.5324588 -0.214926E-07  0.137E-03    4.45      18.3  T
  10    -22.5324588 -0.731289E-08  0.261E-04    4.45      95.8  T
  11    -22.5324588 -0.343434E-09  0.937E-05    4.45     266.7  T

   *** convergence criteria satisfied after 11 iterations ***

         #    Occupation            Energy/Eh            Energy/eV
      -------------------------------------------------------------
         1        2.0000           -0.6778973             -18.4465
       ...           ...                  ...                  ...
        14        2.0000           -0.4781525             -13.0112
        15        2.0000           -0.4776701             -12.9981
        16        2.0000           -0.4716016             -12.8329
        17        2.0000           -0.4694751             -12.7751
        18        2.0000           -0.4417606             -12.0209
        19        2.0000           -0.3853388             -10.4856
        20        2.0000           -0.3804989             -10.3539 (HOMO)
        21                         -0.2168796              -5.9016 (LUMO)
        22                         -0.0326427              -0.8883
        23                          0.0256332               0.6975
        24                          0.0539972               1.4693
        25                          0.0739381               2.0120
       ...                                ...                  ...
        37                          0.5198302              14.1453
      -------------------------------------------------------------
                  HL-Gap            0.1636193 Eh            4.4523 eV
             Fermi-level           -0.2986892 Eh           -8.1277 eV

 SCC (total)                   0 d,  0 h,  0 min,  0.006 sec
 SCC setup                      ...        0 min,  0.001 sec ( 16.665%)
 Dispersion                     ...        0 min,  0.000 sec (  0.000%)
 classical contributions        ...        0 min,  0.000 sec (  0.000%)
 integral evaluation            ...        0 min,  0.000 sec (  0.000%)
 iterations                     ...        0 min,  0.004 sec ( 66.665%)
 molecular gradient             ...        0 min,  0.000 sec (  0.000%)
 printout                       ...        0 min,  0.001 sec ( 16.669%)

         :::::::::::::::::::::::::::::::::::::::::::::::::::::
         ::                     SUMMARY                     ::
         :::::::::::::::::::::::::::::::::::::::::::::::::::::
         :: total energy             -22.297690203846 Eh    ::
         :: gradient norm              0.120616002300 Eh/a0 ::
         :: HOMO-LUMO gap              4.452307539981 eV    ::
         ::.................................................::
         :: HOMO orbital eigv.       -10.353901474257 eV    ::
         :: LUMO orbital eigv.        -5.901593934276 eV    ::
         ::.................................................::
         :: SCC energy               -22.532432064387 Eh    ::
         :: -> isotropic ES            0.041378209270 Eh    ::
         :: -> anisotropic ES          0.003497004830 Eh    ::
         :: -> anisotropic XC          0.010044002055 Eh    ::
         :: -> dispersion             -0.009989469027 Eh    ::
         :: repulsion energy           0.234741860541 Eh    ::
         :: add. restraining           0.000000000000 Eh    ::
         :: total charge               0.000000000000 e     ::
         ::.................................................::
         :: atomisation energy         4.345478781958 Eh    ::
         :::::::::::::::::::::::::::::::::::::::::::::::::::::

           -------------------------------------------------
          |                Property Printout                |
           -------------------------------------------------

    * Orbital Energies and Occupations

         #    Occupation            Energy/Eh            Energy/eV
      -------------------------------------------------------------
         1        2.0000           -0.6778973             -18.4465
       ...           ...                  ...                  ...
         8        2.0000           -0.5570149             -15.1571
         9        2.0000           -0.5414405             -14.7333
        10        2.0000           -0.5179292             -14.0936
        11        2.0000           -0.5139883             -13.9863
        12        2.0000           -0.5081307             -13.8269
        13        2.0000           -0.4989551             -13.5773
        14        2.0000           -0.4781525             -13.0112
        15        2.0000           -0.4776701             -12.9981
        16        2.0000           -0.4716016             -12.8329
        17        2.0000           -0.4694751             -12.7751
        18        2.0000           -0.4417606             -12.0209
        19        2.0000           -0.3853388             -10.4856
        20        2.0000           -0.3804989             -10.3539 (HOMO)
        21                         -0.2168796              -5.9016 (LUMO)
        22                         -0.0326427              -0.8883
        23                          0.0256332               0.6975
        24                          0.0539972               1.4693
        25                          0.0739381               2.0120
        26                          0.0934427               2.5427
        27                          0.1031563               2.8070
        28                          0.1179634               3.2099
        29                          0.1355559               3.6887
        30                          0.1690968               4.6014
        31                          0.1692709               4.6061
       ...                                ...                  ...
        37                          0.5198302              14.1453
      -------------------------------------------------------------
                  HL-Gap            0.1636193 Eh            4.4523 eV
             Fermi-level           -0.2986892 Eh           -8.1277 eV

     #   Z          covCN         q      C6AA      α(0)
     1   6 C        3.675    -0.034    21.425     6.633
     2   7 N        2.736    -0.108    23.368     7.180
     3   6 C        3.762     0.003    20.579     6.467
     4   6 C        3.822    -0.064    21.716     6.631
     5   6 C        3.806    -0.078    21.981     6.674
     6   6 C        2.802     0.257    22.681     7.802
     7   8 O        0.856    -0.452    22.753     6.395
     8   1 H        0.922     0.061     2.190     2.314
     9   1 H        0.922     0.049     2.328     2.386
    10   1 H        0.922     0.061     2.190     2.314
    11   1 H        0.921     0.040     2.446     2.446
    12   1 H        0.921     0.040     2.446     2.446
    13   1 H        0.921     0.044     2.397     2.421
    14   1 H        0.921     0.044     2.397     2.421
    15   1 H        0.921     0.069     2.098     2.265
    16   1 H        0.921     0.069     2.098     2.265

 Mol. C6AA /au·bohr⁶  :       2151.668598
 Mol. C8AA /au·bohr⁸  :      46739.019882
 Mol. α(0) /au        :         69.061635


Wiberg/Mayer (AO) data.
largest (>0.10) Wiberg bond orders for each atom

 ---------------------------------------------------------------------------
     #   Z sym  total        # sym  WBO       # sym  WBO       # sym  WBO
 ---------------------------------------------------------------------------
     1   6 C    3.970 --     2 N    1.001     9 H    0.983     8 H    0.976
                            10 H    0.976
     2   7 N    3.467 --     6 C    1.209     1 C    1.001     3 C    0.998
                             7 O    0.195
     3   6 C    3.978 --     2 N    0.998     4 C    0.998    11 H    0.970
                            12 H    0.970
     4   6 C    3.995 --     5 C    1.002     3 C    0.998    13 H    0.983
                            14 H    0.983
     5   6 C    3.996 --     6 C    1.003     4 C    1.002    16 H    0.957
                            15 H    0.957
     6   6 C    3.953 --     7 O    1.669     2 N    1.209     5 C    1.003
     7   8 O    1.975 --     6 C    1.669     2 N    0.195
     8   1 H    0.996 --     1 C    0.976
     9   1 H    0.998 --     1 C    0.983
    10   1 H    0.996 --     1 C    0.976
    11   1 H    0.998 --     3 C    0.970
    12   1 H    0.998 --     3 C    0.970
    13   1 H    0.998 --     4 C    0.983
    14   1 H    0.998 --     4 C    0.983
    15   1 H    0.995 --     5 C    0.957
    16   1 H    0.995 --     5 C    0.957
 ---------------------------------------------------------------------------

Topologies differ in total number of bonds
Writing topology from bond orders to xtbtopo.mol

molecular dipole:
                 x           y           z       tot (Debye)
 q only:       -0.128      -1.134       1.114
   full:       -0.163      -1.301       1.278       4.653
molecular quadrupole (traceless):
                xx          xy          yy          xz          yz          zz
 q only:        7.755      -0.932      -3.986       1.123       5.432      -3.769
  q+dip:        7.540      -1.822      -3.944       1.899       8.197      -3.596
   full:        7.726      -1.594      -4.025       1.694       7.887      -3.701


           -------------------------------------------------
          | TOTAL ENERGY              -22.297690203846 Eh   |
          | GRADIENT NORM               0.120616002300 Eh/α |
          | HOMO-LUMO GAP               4.452307539981 eV   |
           -------------------------------------------------
########################################################################
[WARNING] Runtime exception occurred
-2- restart_readRestart: Dimension missmatch in restart file.
-1- restart_readRestart: Number of electron missmatch in restart file.
########################################################################

------------------------------------------------------------------------
 unit  open   action     filename
  129 false : read       dft_tmp\mol_385.xyz
  129 false : read       dft_tmp\mol_385.xyz
  129 false : read       dft_tmp\mol_385.xyz
  129 false : read       C:\Users\nkapa\Downloads\xtb-6.7.1pre-windows-x86_64\xtb-6.7.1\share\xtb\param_gfn2-xtb.txt
  129 false : read       xtbrestart
  129 false : replaced   charges
  129 false : replaced   wbo
  129 false : replaced   xtbtopo.mol
  129 false : replaced   xtbrestart

------------------------------------------------------------------------
 * finished run on 2025/06/25 at 12:07:00.604     
------------------------------------------------------------------------
 total:
 * wall-time:     0 d,  0 h,  0 min,  0.019 sec
 *  cpu-time:     0 d,  0 h,  0 min,  0.125 sec
 * ratio c/w:     6.579 speedup
 SCF:
 * wall-time:     0 d,  0 h,  0 min,  0.006 sec
 *  cpu-time:     0 d,  0 h,  0 min,  0.125 sec
 * ratio c/w:    20.833 speedup

normal termination of xtb
