      -----------------------------------------------------------      
     |                   =====================                   |     
     |                           x T B                           |     
     |                   =====================                   |     
     |                         S. Grimme                         |     
     |          Mulliken Center for Theoretical Chemistry        |     
     |                    University of Bonn                     |     
      -----------------------------------------------------------      

   * xtb version 6.7.1pre (5071a88) compiled by 'Marcel@Raven' on 2024-07-23

   xtb is free software: you can redistribute it and/or modify it under
   the terms of the GNU Lesser General Public License as published by
   the Free Software Foundation, either version 3 of the License, or
   (at your option) any later version.
   
   xtb is distributed in the hope that it will be useful,
   but WITHOUT ANY WARRANTY; without even the implied warranty of
   MERCHANTABILITY or FITNESS FOR A PARTICULAR PURPOSE.  See the
   GNU Lesser General Public License for more details.
   
   Cite this work as:
   * C. Bannwarth, E. Caldeweyher, S. Ehlert, A. Hansen, P. Pracht,
     J. Seibert, S. Spicher, S. Grimme, WIREs Comput. Mol. Sci., 2020, 11,
     e01493. DOI: 10.1002/wcms.1493
   
   for GFN2-xTB:
   * C. Bannwarth, S. Ehlert and S. Grimme., J. Chem. Theory Comput., 2019,
     15, 1652-1671. DOI: 10.1021/acs.jctc.8b01176
   for GFN1-xTB:
   * S. Grimme, C. Bannwarth, P. Shushkov, J. Chem. Theory Comput., 2017,
     13, 1989-2009. DOI: 10.1021/acs.jctc.7b00118
   for GFN0-xTB:
   * P. Pracht, E. Caldeweyher, S. Ehlert, S. Grimme, ChemRxiv, 2019, preprint.
     DOI: 10.26434/chemrxiv.8326202.v1
   for GFN-FF:
   * S. Spicher and S. Grimme, Angew. Chem. Int. Ed., 2020, 59, 15665-15673.
     DOI: 10.1002/anie.202004239
   
   for ALPB and GBSA implicit solvation:
   * S. Ehlert, M. Stahn, S. Spicher, S. Grimme, J. Chem. Theory Comput.,
     2021, 17, 4250-4261. DOI: 10.1021/acs.jctc.1c00471
   
   for ddCOSMO and CPCM-X implicit solvation:
   * M. Stahn, S. Ehlert, S. Grimme, J. Phys. Chem. A,
     2023, XX, XXXX-XXXX. DOI: 10.1021/acs.jpca.3c04382
   
   for DFT-D4:
   * E. Caldeweyher, C. Bannwarth and S. Grimme, J. Chem. Phys., 2017,
     147, 034112. DOI: 10.1063/1.4993215
   * E. Caldeweyher, S. Ehlert, A. Hansen, H. Neugebauer, S. Spicher,
     C. Bannwarth and S. Grimme, J. Chem. Phys., 2019, 150, 154122.
     DOI: 10.1063/1.5090222
   * E. Caldeweyher, J.-M. Mewes, S. Ehlert and S. Grimme, Phys. Chem. Chem. Phys.
     2020, 22, 8499-8512. DOI: 10.1039/D0CP00502A
   
   for sTDA-xTB:
   * S. Grimme and C. Bannwarth, J. Chem. Phys., 2016, 145, 054103.
     DOI: 10.1063/1.4959605
   
   in the mass-spec context:
   * V. Asgeirsson, C. Bauer and S. Grimme, Chem. Sci., 2017, 8, 4879.
     DOI: 10.1039/c7sc00601b
   * J. Koopman and S. Grimme, ACS Omega 2019, 4, 12, 15120-15133.
     DOI: 10.1021/acsomega.9b02011
   
   for metadynamics refer to:
   * S. Grimme, J. Chem. Theory Comput., 2019, 155, 2847-2862
     DOI: 10.1021/acs.jctc.9b00143
   
   for SPH calculations refer to:
   * S. Spicher and S. Grimme, J. Chem. Theory Comput., 2021, 17, 1701-1714
     DOI: 10.1021/acs.jctc.0c01306
   
   for ONIOM refer to:
   * C. Plett, A. Katbashev, S. Ehlert, S. Grimme, M. Bursch,
     Phys. Chem. Chem. Phys., 2023, 25, 17860-17868. DOI: 10.1039/D3CP02178E
   
   for DIPRO refer to:
   * J. Kohn, N. Gildemeister, S. Grimme, D. Fazzi, A. Hansen,
     J. Chem. Phys., 2023, just accepted.
   
   for PTB refer to:
   * S. Grimme, M. Mueller, A. Hansen, J. Chem. Phys., 2023, 158, 124111.
     DOI: 10.1063/5.0137838
   
   with help from (in alphabetical order)
   P. Atkinson, C. Bannwarth, F. Bohle, G. Brandenburg, E. Caldeweyher
   M. Checinski, S. Dohm, S. Ehlert, S. Ehrlich, I. Gerasimov, C. Hölzer
   A. Katbashev, J. Kohn, J. Koopman, C. Lavigne, S. Lehtola, F. März, M. Müller,
   F. Musil, H. Neugebauer, J. Pisarek, C. Plett, P. Pracht, F. Pultar,
   J. Seibert, P. Shushkov, S. Spicher, M. Stahn, M. Steiner, T. Strunk,
   J. Stückrath, T. Rose, and J. Unsleber
   
 * started run on 2025/06/25 at 12:07:01.143     
$$$$$$$$$$$$$$$$$$$$$$$$$$$$$$$$$$$$$$$$$$$$$$$$$$$$$$$$$$$$$$$$$$$$$$$$
 CONSTRAINTS & SCANS: DEBUG SECTION
$$$$$$$$$$$$$$$$$$$$$$$$$$$$$$$$$$$$$$$$$$$$$$$$$$$$$$$$$$$$$$$$$$$$$$$$
   ID    Z sym.   atoms
    1    6 C      1, 5
    2    7 N      2-4
    3    1 H      6-8
$$$$$$$$$$$$$$$$$$$$$$$$$$$$$$$$$$$$$$$$$$$$$$$$$$$$$$$$$$$$$$$$$$$$$$$$

           -------------------------------------------------
          |                Calculation Setup                |
           -------------------------------------------------

          program call               : C:\Users\nkapa\Downloads\xtb-6.7.1pre-windows-x86_64\xtb-6.7.1\bin\xtb.EXE dft_tmp\mol_390.xyz --gfn2 --parallel 8 --verbose
          coordinate file            : dft_tmp\mol_390.xyz
          xtbhome directory          : C:\Users\nkapa\AppData\Roaming\SPB_Data
          path for xtb               : C:\Users\nkapa\Downloads\xtb-6.7.1pre-windows-x86_64\xtb-6.7.1\share\xtb
          xcontrol input file        : dft_tmp\mol_390.xyz
          omp threads                :                     8


           -------------------------------------------------
          |                 G F N 2 - x T B                 |
           -------------------------------------------------

        Reference                      10.1021/acs.jctc.8b01176
      * Hamiltonian:
        H0-scaling (s, p, d)           1.850000    2.230000    2.230000
        zeta-weighting                 0.500000
      * Dispersion:
        s8                             2.700000
        a1                             0.520000
        a2                             5.000000
        s9                             5.000000
      * Repulsion:
        kExp                           1.500000    1.000000
        rExp                           1.000000
      * Coulomb:
        alpha                          2.000000
        third order                    shell-resolved
        anisotropic                    true
        a3                             3.000000
        a5                             4.000000
        cn-shift                       1.200000
        cn-exp                         4.000000
        max-rad                        5.000000


          ...................................................
          :                      SETUP                      :
          :.................................................:
          :  # basis functions                  23          :
          :  # atomic orbitals                  23          :
          :  # shells                           13          :
          :  # electrons                        26          :
          :  max. iterations                   250          :
          :  Hamiltonian                  GFN2-xTB          :
          :  restarted?                      false          :
          :  GBSA solvation                  false          :
          :  PC potential                    false          :
          :  electronic temp.          300.0000000     K    :
          :  accuracy                    1.0000000          :
          :  -> integral cutoff          0.2500000E+02      :
          :  -> integral neglect         0.1000000E-07      :
          :  -> SCF convergence          0.1000000E-05 Eh   :
          :  -> wf. convergence          0.1000000E-03 e    :
          :  Broyden damping             0.4000000          :
          :  net charge                          0          :
          :  unpaired electrons                  0          :
          ...................................................

 iter      E             dE          RMSdq      gap      omega  full diag
   1    -14.6353253 -0.146353E+02  0.401E+00    4.78       0.0  T
   2    -14.6847233 -0.493980E-01  0.337E+00    4.37       1.0  T
   3    -14.6986253 -0.139020E-01  0.192E+00    4.27       1.0  T
   4    -14.6987468 -0.121439E-03  0.308E-01    4.08       1.0  T
   5    -14.6989819 -0.235122E-03  0.106E-01    4.06       1.0  T
   6    -14.6989896 -0.775498E-05  0.227E-02    4.06       1.6  T
   7    -14.6989901 -0.420436E-06  0.672E-03    4.06       5.3  T
   8    -14.6989901 -0.660985E-07  0.153E-03    4.06      23.2  T
   9    -14.6989901 -0.113880E-08  0.303E-04    4.06     116.6  T
  10    -14.6989901 -0.268507E-09  0.897E-05    4.06     394.1  T

   *** convergence criteria satisfied after 10 iterations ***

         #    Occupation            Energy/Eh            Energy/eV
      -------------------------------------------------------------
         1        2.0000           -0.7201881             -19.5973
       ...           ...                  ...                  ...
         7        2.0000           -0.5451072             -14.8331
         8        2.0000           -0.5008804             -13.6296
         9        2.0000           -0.4933234             -13.4240
        10        2.0000           -0.4380619             -11.9203
        11        2.0000           -0.4309381             -11.7264
        12        2.0000           -0.4189477             -11.4001
        13        2.0000           -0.4007301             -10.9044 (HOMO)
        14                         -0.2515344              -6.8446 (LUMO)
        15                         -0.1825415              -4.9672
        16                         -0.0391828              -1.0662
        17                          0.0821366               2.2351
        18                          0.1557731               4.2388
       ...                                ...                  ...
        23                          0.5815946              15.8260
      -------------------------------------------------------------
                  HL-Gap            0.1491957 Eh            4.0598 eV
             Fermi-level           -0.3261322 Eh           -8.8745 eV

 SCC (total)                   0 d,  0 h,  0 min,  0.003 sec
 SCC setup                      ...        0 min,  0.000 sec (  0.000%)
 Dispersion                     ...        0 min,  0.000 sec (  0.000%)
 classical contributions        ...        0 min,  0.000 sec (  0.000%)
 integral evaluation            ...        0 min,  0.000 sec (  0.000%)
 iterations                     ...        0 min,  0.002 sec ( 66.669%)
 molecular gradient             ...        0 min,  0.001 sec ( 33.331%)
 printout                       ...        0 min,  0.000 sec (  0.000%)

         :::::::::::::::::::::::::::::::::::::::::::::::::::::
         ::                     SUMMARY                     ::
         :::::::::::::::::::::::::::::::::::::::::::::::::::::
         :: total energy             -14.535092736318 Eh    ::
         :: gradient norm              0.051226188551 Eh/a0 ::
         :: HOMO-LUMO gap              4.059821310400 eV    ::
         ::.................................................::
         :: HOMO orbital eigv.       -10.904420695846 eV    ::
         :: LUMO orbital eigv.        -6.844599385447 eV    ::
         ::.................................................::
         :: SCC energy               -14.698989592351 Eh    ::
         :: -> isotropic ES            0.012585219726 Eh    ::
         :: -> anisotropic ES          0.003537001372 Eh    ::
         :: -> anisotropic XC          0.019383945693 Eh    ::
         :: -> dispersion             -0.004240607972 Eh    ::
         :: repulsion energy           0.163896856033 Eh    ::
         :: add. restraining           0.000000000000 Eh    ::
         :: total charge              -0.000000000000 e     ::
         ::.................................................::
         :: atomisation energy         2.516856255555 Eh    ::
         :::::::::::::::::::::::::::::::::::::::::::::::::::::

           -------------------------------------------------
          |                Property Printout                |
           -------------------------------------------------

    * Orbital Energies and Occupations

         #    Occupation            Energy/Eh            Energy/eV
      -------------------------------------------------------------
         1        2.0000           -0.7201881             -19.5973
         2        2.0000           -0.6568981             -17.8751
         3        2.0000           -0.6515136             -17.7286
         4        2.0000           -0.5974353             -16.2570
         5        2.0000           -0.5934234             -16.1479
         6        2.0000           -0.5682308             -15.4623
         7        2.0000           -0.5451072             -14.8331
         8        2.0000           -0.5008804             -13.6296
         9        2.0000           -0.4933234             -13.4240
        10        2.0000           -0.4380619             -11.9203
        11        2.0000           -0.4309381             -11.7264
        12        2.0000           -0.4189477             -11.4001
        13        2.0000           -0.4007301             -10.9044 (HOMO)
        14                         -0.2515344              -6.8446 (LUMO)
        15                         -0.1825415              -4.9672
        16                         -0.0391828              -1.0662
        17                          0.0821366               2.2351
        18                          0.1557731               4.2388
        19                          0.1857973               5.0558
        20                          0.2050181               5.5788
        21                          0.2973663               8.0917
        22                          0.3991341              10.8610
        23                          0.5815946              15.8260
      -------------------------------------------------------------
                  HL-Gap            0.1491957 Eh            4.0598 eV
             Fermi-level           -0.3261322 Eh           -8.8745 eV

     #   Z          covCN         q      C6AA      α(0)
     1   6 C        3.034     0.026    27.400     8.586
     2   7 N        2.011    -0.208    26.288     7.605
     3   7 N        3.100     0.117    19.237     6.514
     4   7 N        2.011    -0.208    26.288     7.605
     5   6 C        3.034     0.026    27.400     8.586
     6   1 H        0.925     0.038     2.482     2.464
     7   1 H        0.858     0.173     1.258     1.757
     8   1 H        0.925     0.038     2.482     2.464

 Mol. C6AA /au·bohr⁶  :        861.135060
 Mol. C8AA /au·bohr⁸  :      19531.067726
 Mol. α(0) /au        :         45.579195


Wiberg/Mayer (AO) data.
largest (>0.10) Wiberg bond orders for each atom

 ---------------------------------------------------------------------------
     #   Z sym  total        # sym  WBO       # sym  WBO       # sym  WBO
 ---------------------------------------------------------------------------
     1   6 C    3.978 --     2 N    1.468     5 C    1.417     6 H    0.970
     2   7 N    2.996 --     1 C    1.468     3 N    1.277     4 N    0.214
     3   7 N    3.688 --     4 N    1.277     2 N    1.277     7 H    0.935
     4   7 N    2.996 --     5 C    1.468     3 N    1.277     2 N    0.214
     5   6 C    3.978 --     4 N    1.468     1 C    1.417     8 H    0.970
     6   1 H    0.999 --     1 C    0.970
     7   1 H    0.970 --     3 N    0.935
     8   1 H    0.999 --     5 C    0.970
 ---------------------------------------------------------------------------

Topologies differ in total number of bonds
Writing topology from bond orders to xtbtopo.mol

molecular dipole:
                 x           y           z       tot (Debye)
 q only:        0.316       0.000       0.001
   full:        0.134       0.000       0.000       0.341
molecular quadrupole (traceless):
                xx          xy          yy          xz          yz          zz
 q only:        4.971       0.010      -3.400       0.022       0.052      -1.571
  q+dip:        8.303       0.017      -6.364       0.034       0.127      -1.940
   full:        7.501       0.016      -6.866       0.027       0.178      -0.635


           -------------------------------------------------
          | TOTAL ENERGY              -14.535092736318 Eh   |
          | GRADIENT NORM               0.051226188551 Eh/α |
          | HOMO-LUMO GAP               4.059821310400 eV   |
           -------------------------------------------------
########################################################################
[WARNING] Runtime exception occurred
-1- restart_readRestart: Dimension missmatch in restart file.
########################################################################

------------------------------------------------------------------------
 unit  open   action     filename
  129 false : read       dft_tmp\mol_390.xyz
  129 false : read       dft_tmp\mol_390.xyz
  129 false : read       dft_tmp\mol_390.xyz
  129 false : read       C:\Users\nkapa\Downloads\xtb-6.7.1pre-windows-x86_64\xtb-6.7.1\share\xtb\param_gfn2-xtb.txt
  129 false : read       xtbrestart
  129 false : replaced   charges
  129 false : replaced   wbo
  129 false : replaced   xtbtopo.mol
  129 false : replaced   xtbrestart

------------------------------------------------------------------------
 * finished run on 2025/06/25 at 12:07:01.170     
------------------------------------------------------------------------
 total:
 * wall-time:     0 d,  0 h,  0 min,  0.026 sec
 *  cpu-time:     0 d,  0 h,  0 min,  0.125 sec
 * ratio c/w:     4.808 speedup
 SCF:
 * wall-time:     0 d,  0 h,  0 min,  0.003 sec
 *  cpu-time:     0 d,  0 h,  0 min,  0.000 sec
 * ratio c/w:     0.000 speedup

normal termination of xtb
