22

C -2.590411 1.512861 -0.357198
C -3.942617 1.551450 -0.007763
N -4.465163 0.593278 0.802938
C -3.701514 -0.419040 1.293368
C -2.344613 -0.494882 0.968500
C -1.779767 0.483283 0.132157
N -0.395020 0.454550 -0.233168
N 0.395021 -0.454550 0.178253
C 1.779768 -0.483284 -0.187074
C 2.590408 -1.512875 0.302260
C 3.942617 -1.551452 -0.047165
N 4.465166 -0.593268 -0.857848
C 3.701515 0.419049 -1.348276
C 2.344615 0.494888 -1.023409
H -2.176996 2.277374 -1.003081
H -4.576960 2.344019 -0.381602
H -4.147756 -1.166033 1.936198
H -1.746921 -1.305535 1.365083
H 2.176989 -2.277403 0.948121
H 4.576958 -2.344029 0.326661
H 4.147759 1.166050 -1.991096
H 1.746923 1.305550 -1.419979
