      -----------------------------------------------------------      
     |                   =====================                   |     
     |                           x T B                           |     
     |                   =====================                   |     
     |                         S. Grimme                         |     
     |          Mulliken Center for Theoretical Chemistry        |     
     |                    University of Bonn                     |     
      -----------------------------------------------------------      

   * xtb version 6.7.1pre (5071a88) compiled by 'Marcel@Raven' on 2024-07-23

   xtb is free software: you can redistribute it and/or modify it under
   the terms of the GNU Lesser General Public License as published by
   the Free Software Foundation, either version 3 of the License, or
   (at your option) any later version.
   
   xtb is distributed in the hope that it will be useful,
   but WITHOUT ANY WARRANTY; without even the implied warranty of
   MERCHANTABILITY or FITNESS FOR A PARTICULAR PURPOSE.  See the
   GNU Lesser General Public License for more details.
   
   Cite this work as:
   * C. Bannwarth, E. Caldeweyher, S. Ehlert, A. Hansen, P. Pracht,
     J. Seibert, S. Spicher, S. Grimme, WIREs Comput. Mol. Sci., 2020, 11,
     e01493. DOI: 10.1002/wcms.1493
   
   for GFN2-xTB:
   * C. Bannwarth, S. Ehlert and S. Grimme., J. Chem. Theory Comput., 2019,
     15, 1652-1671. DOI: 10.1021/acs.jctc.8b01176
   for GFN1-xTB:
   * S. Grimme, C. Bannwarth, P. Shushkov, J. Chem. Theory Comput., 2017,
     13, 1989-2009. DOI: 10.1021/acs.jctc.7b00118
   for GFN0-xTB:
   * P. Pracht, E. Caldeweyher, S. Ehlert, S. Grimme, ChemRxiv, 2019, preprint.
     DOI: 10.26434/chemrxiv.8326202.v1
   for GFN-FF:
   * S. Spicher and S. Grimme, Angew. Chem. Int. Ed., 2020, 59, 15665-15673.
     DOI: 10.1002/anie.202004239
   
   for ALPB and GBSA implicit solvation:
   * S. Ehlert, M. Stahn, S. Spicher, S. Grimme, J. Chem. Theory Comput.,
     2021, 17, 4250-4261. DOI: 10.1021/acs.jctc.1c00471
   
   for ddCOSMO and CPCM-X implicit solvation:
   * M. Stahn, S. Ehlert, S. Grimme, J. Phys. Chem. A,
     2023, XX, XXXX-XXXX. DOI: 10.1021/acs.jpca.3c04382
   
   for DFT-D4:
   * E. Caldeweyher, C. Bannwarth and S. Grimme, J. Chem. Phys., 2017,
     147, 034112. DOI: 10.1063/1.4993215
   * E. Caldeweyher, S. Ehlert, A. Hansen, H. Neugebauer, S. Spicher,
     C. Bannwarth and S. Grimme, J. Chem. Phys., 2019, 150, 154122.
     DOI: 10.1063/1.5090222
   * E. Caldeweyher, J.-M. Mewes, S. Ehlert and S. Grimme, Phys. Chem. Chem. Phys.
     2020, 22, 8499-8512. DOI: 10.1039/D0CP00502A
   
   for sTDA-xTB:
   * S. Grimme and C. Bannwarth, J. Chem. Phys., 2016, 145, 054103.
     DOI: 10.1063/1.4959605
   
   in the mass-spec context:
   * V. Asgeirsson, C. Bauer and S. Grimme, Chem. Sci., 2017, 8, 4879.
     DOI: 10.1039/c7sc00601b
   * J. Koopman and S. Grimme, ACS Omega 2019, 4, 12, 15120-15133.
     DOI: 10.1021/acsomega.9b02011
   
   for metadynamics refer to:
   * S. Grimme, J. Chem. Theory Comput., 2019, 155, 2847-2862
     DOI: 10.1021/acs.jctc.9b00143
   
   for SPH calculations refer to:
   * S. Spicher and S. Grimme, J. Chem. Theory Comput., 2021, 17, 1701-1714
     DOI: 10.1021/acs.jctc.0c01306
   
   for ONIOM refer to:
   * C. Plett, A. Katbashev, S. Ehlert, S. Grimme, M. Bursch,
     Phys. Chem. Chem. Phys., 2023, 25, 17860-17868. DOI: 10.1039/D3CP02178E
   
   for DIPRO refer to:
   * J. Kohn, N. Gildemeister, S. Grimme, D. Fazzi, A. Hansen,
     J. Chem. Phys., 2023, just accepted.
   
   for PTB refer to:
   * S. Grimme, M. Mueller, A. Hansen, J. Chem. Phys., 2023, 158, 124111.
     DOI: 10.1063/5.0137838
   
   with help from (in alphabetical order)
   P. Atkinson, C. Bannwarth, F. Bohle, G. Brandenburg, E. Caldeweyher
   M. Checinski, S. Dohm, S. Ehlert, S. Ehrlich, I. Gerasimov, C. Hölzer
   A. Katbashev, J. Kohn, J. Koopman, C. Lavigne, S. Lehtola, F. März, M. Müller,
   F. Musil, H. Neugebauer, J. Pisarek, C. Plett, P. Pracht, F. Pultar,
   J. Seibert, P. Shushkov, S. Spicher, M. Stahn, M. Steiner, T. Strunk,
   J. Stückrath, T. Rose, and J. Unsleber
   
 * started run on 2025/06/25 at 12:06:35.552     
$$$$$$$$$$$$$$$$$$$$$$$$$$$$$$$$$$$$$$$$$$$$$$$$$$$$$$$$$$$$$$$$$$$$$$$$
 CONSTRAINTS & SCANS: DEBUG SECTION
$$$$$$$$$$$$$$$$$$$$$$$$$$$$$$$$$$$$$$$$$$$$$$$$$$$$$$$$$$$$$$$$$$$$$$$$
   ID    Z sym.   atoms
    1    8 O      1, 4, 7
    2    6 C      2, 3, 5, 6, 8, 9
    3   17 Cl     10
    4    1 H      11-23
$$$$$$$$$$$$$$$$$$$$$$$$$$$$$$$$$$$$$$$$$$$$$$$$$$$$$$$$$$$$$$$$$$$$$$$$

           -------------------------------------------------
          |                Calculation Setup                |
           -------------------------------------------------

          program call               : C:\Users\nkapa\Downloads\xtb-6.7.1pre-windows-x86_64\xtb-6.7.1\bin\xtb.EXE dft_tmp\mol_188.xyz --gfn2 --parallel 8 --verbose
          coordinate file            : dft_tmp\mol_188.xyz
          xtbhome directory          : C:\Users\nkapa\AppData\Roaming\SPB_Data
          path for xtb               : C:\Users\nkapa\Downloads\xtb-6.7.1pre-windows-x86_64\xtb-6.7.1\share\xtb
          xcontrol input file        : dft_tmp\mol_188.xyz
          omp threads                :                     8


           -------------------------------------------------
          |                 G F N 2 - x T B                 |
           -------------------------------------------------

        Reference                      10.1021/acs.jctc.8b01176
      * Hamiltonian:
        H0-scaling (s, p, d)           1.850000    2.230000    2.230000
        zeta-weighting                 0.500000
      * Dispersion:
        s8                             2.700000
        a1                             0.520000
        a2                             5.000000
        s9                             5.000000
      * Repulsion:
        kExp                           1.500000    1.000000
        rExp                           1.000000
      * Coulomb:
        alpha                          2.000000
        third order                    shell-resolved
        anisotropic                    true
        a3                             3.000000
        a5                             4.000000
        cn-shift                       1.200000
        cn-exp                         4.000000
        max-rad                        5.000000


          ...................................................
          :                      SETUP                      :
          :.................................................:
          :  # basis functions                  59          :
          :  # atomic orbitals                  58          :
          :  # shells                           34          :
          :  # electrons                        62          :
          :  max. iterations                   250          :
          :  Hamiltonian                  GFN2-xTB          :
          :  restarted?                      false          :
          :  GBSA solvation                  false          :
          :  PC potential                    false          :
          :  electronic temp.          300.0000000     K    :
          :  accuracy                    1.0000000          :
          :  -> integral cutoff          0.2500000E+02      :
          :  -> integral neglect         0.1000000E-07      :
          :  -> SCF convergence          0.1000000E-05 Eh   :
          :  -> wf. convergence          0.1000000E-03 e    :
          :  Broyden damping             0.4000000          :
          :  net charge                          0          :
          :  unpaired electrons                  0          :
          ...................................................

 iter      E             dE          RMSdq      gap      omega  full diag
   1    -36.3695814 -0.363696E+02  0.451E+00    6.70       0.0  T
   2    -36.4459765 -0.763952E-01  0.242E+00    6.30       1.0  T
   3    -36.4472898 -0.131324E-02  0.994E-01    6.40       1.0  T
   4    -36.4480322 -0.742371E-03  0.157E-01    6.29       1.0  T
   5    -36.4481202 -0.880433E-04  0.978E-02    6.34       1.0  T
   6    -36.4481485 -0.282752E-04  0.424E-02    6.34       1.0  T
   7    -36.4481589 -0.103803E-04  0.309E-02    6.32       1.0  T
   8    -36.4481672 -0.831564E-05  0.191E-02    6.30       1.1  T
   9    -36.4481717 -0.448785E-05  0.548E-03    6.29       3.8  T
  10    -36.4481718 -0.131994E-06  0.273E-03    6.29       7.6  T
  11    -36.4481718 -0.223265E-07  0.725E-04    6.29      28.8  T
  12    -36.4481718 -0.265216E-08  0.497E-04    6.29      41.9  T

   *** convergence criteria satisfied after 12 iterations ***

         #    Occupation            Energy/Eh            Energy/eV
      -------------------------------------------------------------
         1        2.0000           -1.0547294             -28.7006
       ...           ...                  ...                  ...
        25        2.0000           -0.4560327             -12.4093
        26        2.0000           -0.4496988             -12.2369
        27        2.0000           -0.4270628             -11.6210
        28        2.0000           -0.4190818             -11.4038
        29        2.0000           -0.4170296             -11.3480
        30        2.0000           -0.4066504             -11.0655
        31        2.0000           -0.3971247             -10.8063 (HOMO)
        32                         -0.1660858              -4.5194 (LUMO)
        33                          0.0008728               0.0237
        34                          0.0109062               0.2968
        35                          0.0152299               0.4144
        36                          0.0222658               0.6059
       ...                                ...                  ...
        58                          0.2709743               7.3736
      -------------------------------------------------------------
                  HL-Gap            0.2310388 Eh            6.2869 eV
             Fermi-level           -0.2816052 Eh           -7.6629 eV

 SCC (total)                   0 d,  0 h,  0 min,  0.007 sec
 SCC setup                      ...        0 min,  0.000 sec (  0.000%)
 Dispersion                     ...        0 min,  0.000 sec (  0.000%)
 classical contributions        ...        0 min,  0.000 sec (  0.000%)
 integral evaluation            ...        0 min,  0.001 sec ( 14.285%)
 iterations                     ...        0 min,  0.005 sec ( 71.427%)
 molecular gradient             ...        0 min,  0.001 sec ( 14.288%)
 printout                       ...        0 min,  0.000 sec (  0.000%)

         :::::::::::::::::::::::::::::::::::::::::::::::::::::
         ::                     SUMMARY                     ::
         :::::::::::::::::::::::::::::::::::::::::::::::::::::
         :: total energy             -36.186005824066 Eh    ::
         :: gradient norm              0.066168337621 Eh/a0 ::
         :: HOMO-LUMO gap              6.286886704714 eV    ::
         ::.................................................::
         :: HOMO orbital eigv.       -10.806312223133 eV    ::
         :: LUMO orbital eigv.        -4.519425518419 eV    ::
         ::.................................................::
         :: SCC energy               -36.448250625144 Eh    ::
         :: -> isotropic ES            0.062047609470 Eh    ::
         :: -> anisotropic ES          0.006998551433 Eh    ::
         :: -> anisotropic XC          0.003190993275 Eh    ::
         :: -> dispersion             -0.014755955071 Eh    ::
         :: repulsion energy           0.262244801078 Eh    ::
         :: add. restraining           0.000000000000 Eh    ::
         :: total charge               0.000000000000 e     ::
         ::.................................................::
         :: atomisation energy         5.555363706127 Eh    ::
         :::::::::::::::::::::::::::::::::::::::::::::::::::::

           -------------------------------------------------
          |                Property Printout                |
           -------------------------------------------------

    * Orbital Energies and Occupations

         #    Occupation            Energy/Eh            Energy/eV
      -------------------------------------------------------------
         1        2.0000           -1.0547294             -28.7006
       ...           ...                  ...                  ...
        19        2.0000           -0.5146073             -14.0032
        20        2.0000           -0.5036886             -13.7061
        21        2.0000           -0.4970443             -13.5253
        22        2.0000           -0.4913594             -13.3706
        23        2.0000           -0.4741124             -12.9013
        24        2.0000           -0.4636156             -12.6156
        25        2.0000           -0.4560327             -12.4093
        26        2.0000           -0.4496988             -12.2369
        27        2.0000           -0.4270628             -11.6210
        28        2.0000           -0.4190818             -11.4038
        29        2.0000           -0.4170296             -11.3480
        30        2.0000           -0.4066504             -11.0655
        31        2.0000           -0.3971247             -10.8063 (HOMO)
        32                         -0.1660858              -4.5194 (LUMO)
        33                          0.0008728               0.0237
        34                          0.0109062               0.2968
        35                          0.0152299               0.4144
        36                          0.0222658               0.6059
        37                          0.0228484               0.6217
        38                          0.0288016               0.7837
        39                          0.0368665               1.0032
        40                          0.0682507               1.8572
        41                          0.0760821               2.0703
        42                          0.0815313               2.2186
       ...                                ...                  ...
        58                          0.2709743               7.3736
      -------------------------------------------------------------
                  HL-Gap            0.2310388 Eh            6.2869 eV
             Fermi-level           -0.2816052 Eh           -7.6629 eV

     #   Z          covCN         q      C6AA      α(0)
     1   8 O        1.652    -0.432    21.474     6.256
     2   6 C        3.668     0.080    19.479     6.328
     3   6 C        3.700     0.077    19.453     6.307
     4   8 O        1.699    -0.288    18.781     5.851
     5   6 C        3.700     0.073    19.508     6.316
     6   6 C        3.708     0.077    19.428     6.300
     7   8 O        1.700    -0.296    18.922     5.873
     8   6 C        3.739     0.076    19.387     6.283
     9   6 C        3.706     0.021    20.359     6.450
    10  17 Cl       0.919    -0.198   105.388    15.705
    11   1 H        0.801     0.290     0.752     1.362
    12   1 H        0.921     0.033     2.542     2.493
    13   1 H        0.921     0.015     2.807     2.620
    14   1 H        0.922     0.043     2.409     2.427
    15   1 H        0.921     0.036     2.503     2.474
    16   1 H        0.921     0.060     2.194     2.317
    17   1 H        0.921     0.045     2.382     2.414
    18   1 H        0.921     0.020     2.733     2.586
    19   1 H        0.921     0.027     2.636     2.539
    20   1 H        0.920     0.038     2.478     2.462
    21   1 H        0.921     0.061     2.186     2.312
    22   1 H        0.922     0.076     2.018     2.222
    23   1 H        0.922     0.064     2.158     2.298

 Mol. C6AA /au·bohr⁶  :       4829.908306
 Mol. C8AA /au·bohr⁸  :     112994.528506
 Mol. α(0) /au        :        102.195210


Wiberg/Mayer (AO) data.
largest (>0.10) Wiberg bond orders for each atom

 ---------------------------------------------------------------------------
     #   Z sym  total        # sym  WBO       # sym  WBO       # sym  WBO
 ---------------------------------------------------------------------------
     1   8 O    1.958 --     2 C    1.003    11 H    0.901
     2   6 C    3.961 --     1 O    1.003     3 C    0.995    12 H    0.969
                            13 H    0.969
     3   6 C    3.959 --     2 C    0.995     4 O    0.991    14 H    0.968
                            15 H    0.966
     4   8 O    2.092 --     5 C    0.993     3 C    0.991
     5   6 C    3.956 --     4 O    0.993     6 C    0.991    16 H    0.967
                            17 H    0.965
     6   6 C    3.956 --     5 C    0.991     7 O    0.984    18 H    0.966
                            19 H    0.964
     7   8 O    2.087 --     8 C    0.990     6 C    0.984
     8   6 C    3.955 --     9 C    0.999     7 O    0.990    21 H    0.967
                            20 H    0.966
     9   6 C    3.935 --     8 C    0.999    22 H    0.976    23 H    0.976
                            10 Cl   0.955
    10  17 Cl   1.000 --     9 C    0.955
    11   1 H    0.916 --     1 O    0.901
    12   1 H    0.999 --     2 C    0.969
    13   1 H    1.000 --     2 C    0.969
    14   1 H    0.998 --     3 C    0.968
    15   1 H    0.999 --     3 C    0.966
    16   1 H    0.996 --     5 C    0.967
    17   1 H    0.998 --     5 C    0.965
    18   1 H    1.000 --     6 C    0.966
    19   1 H    0.999 --     6 C    0.964
    20   1 H    0.999 --     8 C    0.966
    21   1 H    0.996 --     8 C    0.967
    22   1 H    0.994 --     9 C    0.976
    23   1 H    0.996 --     9 C    0.976
 ---------------------------------------------------------------------------

Topologies differ in total number of bonds
Writing topology from bond orders to xtbtopo.mol

molecular dipole:
                 x           y           z       tot (Debye)
 q only:        1.162       0.447       0.069
   full:        1.345       0.671      -0.029       3.822
molecular quadrupole (traceless):
                xx          xy          yy          xz          yz          zz
 q only:       -2.474      -0.357      -0.742      -4.441       0.265       3.216
  q+dip:       -1.972      -0.527      -0.905      -5.492      -0.906       2.876
   full:       -0.382      -0.778      -2.111      -4.795      -0.409       2.493


           -------------------------------------------------
          | TOTAL ENERGY              -36.186005824066 Eh   |
          | GRADIENT NORM               0.066168337621 Eh/α |
          | HOMO-LUMO GAP               6.286886704714 eV   |
           -------------------------------------------------
########################################################################
[WARNING] Runtime exception occurred
-2- restart_readRestart: Dimension missmatch in restart file.
-1- restart_readRestart: Number of electron missmatch in restart file.
########################################################################

------------------------------------------------------------------------
 unit  open   action     filename
  129 false : read       dft_tmp\mol_188.xyz
  129 false : read       dft_tmp\mol_188.xyz
  129 false : read       dft_tmp\mol_188.xyz
  129 false : read       C:\Users\nkapa\Downloads\xtb-6.7.1pre-windows-x86_64\xtb-6.7.1\share\xtb\param_gfn2-xtb.txt
  129 false : read       xtbrestart
  129 false : replaced   charges
  129 false : replaced   wbo
  129 false : replaced   xtbtopo.mol
  129 false : replaced   xtbrestart

------------------------------------------------------------------------
 * finished run on 2025/06/25 at 12:06:35.582     
------------------------------------------------------------------------
 total:
 * wall-time:     0 d,  0 h,  0 min,  0.029 sec
 *  cpu-time:     0 d,  0 h,  0 min,  0.188 sec
 * ratio c/w:     6.466 speedup
 SCF:
 * wall-time:     0 d,  0 h,  0 min,  0.007 sec
 *  cpu-time:     0 d,  0 h,  0 min,  0.000 sec
 * ratio c/w:     0.000 speedup

normal termination of xtb
