36

C 0.529224 0.362983 0.312522
C -0.392370 -0.652607 -0.385138
N -1.812644 -0.332780 -0.108886
C -2.633518 -1.565904 -0.120750
C -4.009151 -1.308886 0.413365
O -4.171792 -1.043520 1.634392
O -5.104602 -1.343115 -0.443586
C -2.329200 0.675532 -1.069582
C -3.247219 1.625714 -0.368117
O -4.409377 1.828146 -0.808195
O -2.810365 2.307763 0.760434
N 1.915973 0.301583 -0.208259
C 2.697090 1.475454 0.242612
C 3.945790 1.635198 -0.568707
O 3.869931 1.941192 -1.788664
O 5.188609 1.427981 0.021279
C 2.604951 -0.984710 0.079729
C 2.713333 -1.303898 1.546328
O 1.810896 -1.969157 2.119528
O 3.812898 -0.869178 2.275656
Na 0.000000 0.000000 0.000000
Na 0.000000 0.000000 0.000000
H 0.114242 1.378085 0.132903
H 0.503854 0.206171 1.412720
H -0.131442 -1.658734 0.008919
H -0.192207 -0.671279 -1.481118
H -2.692887 -1.994369 -1.146582
H -2.178827 -2.339452 0.536761
H -6.039325 -1.159803 -0.098948
H -2.851070 0.197214 -1.929594
H -1.512197 1.289598 -1.508224
H 2.109000 2.409870 0.107821
H 2.944965 1.403436 1.323280
H 6.041419 1.523573 -0.516925
H 2.089584 -1.816671 -0.443339
H 3.626433 -0.975431 -0.355961
