21

C -0.618520 1.014705 0.186424
C -0.251896 -0.477034 0.007172
C 1.266007 -0.716996 -0.211929
C 2.081656 -0.336754 0.998705
O 2.687060 0.766805 1.051770
O 2.133149 -1.195426 2.089603
O 1.743581 -0.090297 -1.379473
C -1.036332 -1.089302 -1.125746
O -1.712827 -2.133897 -0.933235
O -1.001652 -0.521953 -2.394388
C -2.040322 1.177524 0.632731
O -2.339797 1.056210 1.849752
O -3.039913 1.420919 -0.300765
Na 0.000000 0.000000 0.000000
Na 0.000000 0.000000 0.000000
Na 0.000000 0.000000 0.000000
H -0.474675 1.572631 -0.763638
H 0.038823 1.481179 0.950512
H -0.533804 -1.008921 0.945420
H 1.412056 -1.810926 -0.350905
H 1.687406 0.891529 -1.252010
