19

C 2.963117 0.221541 0.330873
C 1.477094 0.122270 0.152833
C 0.635041 1.121176 0.665206
C -0.752379 1.010548 0.531432
C -1.313454 -0.107769 -0.099899
C -0.474712 -1.111510 -0.602923
C 0.912828 -1.001797 -0.469638
S -3.059601 -0.240733 -0.278586
O -3.744221 0.452116 0.865969
O -3.464168 -1.688170 -0.278126
O -3.528949 0.471233 -1.725368
Na 0.000000 0.000000 0.000000
H 3.286441 1.284285 0.340772
H 3.252260 -0.253985 1.291240
H 3.492467 -0.290307 -0.500907
H 1.052229 1.986274 1.165817
H -1.387266 1.795836 0.921526
H -0.893293 -1.979325 -1.096502
H 1.546566 -1.791683 -0.853706
