30

C -2.374737 -1.174678 0.792531
C -1.219858 -0.527980 -0.008014
C -1.260378 -1.110082 -1.444233
C -1.466327 1.018872 -0.049605
C -0.207704 1.860788 0.219881
O -0.372910 3.154454 -0.299826
C 1.013562 1.211533 -0.426548
C 1.311080 -0.180952 0.200610
C 2.090340 -1.043153 -0.828801
C 2.224385 0.013103 1.429829
N 0.062452 -0.843647 0.682870
O 0.237756 -2.189850 0.774835
H -3.360846 -0.882427 0.369888
H -2.336729 -0.848757 1.854509
H -2.308894 -2.283685 0.768056
H -0.965417 -2.180483 -1.454284
H -2.288020 -1.037933 -1.861987
H -0.601408 -0.548337 -2.133283
H -1.895384 1.312368 -1.034132
H -2.225071 1.326810 0.704546
H -0.038378 1.925938 1.319702
H -1.012112 3.623304 0.298258
H 0.830916 1.125623 -1.519816
H 1.891111 1.887461 -0.318816
H 2.984307 -0.491754 -1.192979
H 2.447395 -1.991914 -0.373856
H 1.471548 -1.298266 -1.709016
H 3.180909 0.503189 1.145478
H 2.464198 -0.967393 1.894882
H 1.724215 0.637851 2.199322
