26

C 2.676103 0.105974 0.642108
C 1.917180 0.085497 -0.679104
N 0.501007 -0.183145 -0.446113
C -0.086820 -1.392901 -0.351638
C -1.414998 -1.203397 -0.027173
N -1.639442 0.121755 0.072291
C -0.457011 0.721797 -0.164489
C -2.872933 0.766523 0.502938
C -0.654050 -0.050430 -0.123363
C 0.810423 0.022063 0.147658
O 1.414989 -0.974528 0.623044
O 1.501374 1.206602 -0.072805
H 2.270058 0.900836 1.303178
H 3.750768 0.310804 0.452623
H 2.582062 -0.876566 1.151474
H 2.035137 1.066255 -1.189125
H 2.345316 -0.699354 -1.339886
H 0.417759 -2.341698 -0.480815
H -2.153423 -1.974934 0.148922
H -0.291052 1.790750 -0.108388
H -2.949643 1.780447 0.055916
H -3.750188 0.168063 0.177326
H -2.879880 0.853295 1.609566
H -0.922120 -1.059098 -0.502721
H -0.936552 0.705798 -0.885461
H -1.214064 0.149593 0.813647
