      -----------------------------------------------------------      
     |                   =====================                   |     
     |                           x T B                           |     
     |                   =====================                   |     
     |                         S. Grimme                         |     
     |          Mulliken Center for Theoretical Chemistry        |     
     |                    University of Bonn                     |     
      -----------------------------------------------------------      

   * xtb version 6.7.1pre (5071a88) compiled by 'Marcel@Raven' on 2024-07-23

   xtb is free software: you can redistribute it and/or modify it under
   the terms of the GNU Lesser General Public License as published by
   the Free Software Foundation, either version 3 of the License, or
   (at your option) any later version.
   
   xtb is distributed in the hope that it will be useful,
   but WITHOUT ANY WARRANTY; without even the implied warranty of
   MERCHANTABILITY or FITNESS FOR A PARTICULAR PURPOSE.  See the
   GNU Lesser General Public License for more details.
   
   Cite this work as:
   * C. Bannwarth, E. Caldeweyher, S. Ehlert, A. Hansen, P. Pracht,
     J. Seibert, S. Spicher, S. Grimme, WIREs Comput. Mol. Sci., 2020, 11,
     e01493. DOI: 10.1002/wcms.1493
   
   for GFN2-xTB:
   * C. Bannwarth, S. Ehlert and S. Grimme., J. Chem. Theory Comput., 2019,
     15, 1652-1671. DOI: 10.1021/acs.jctc.8b01176
   for GFN1-xTB:
   * S. Grimme, C. Bannwarth, P. Shushkov, J. Chem. Theory Comput., 2017,
     13, 1989-2009. DOI: 10.1021/acs.jctc.7b00118
   for GFN0-xTB:
   * P. Pracht, E. Caldeweyher, S. Ehlert, S. Grimme, ChemRxiv, 2019, preprint.
     DOI: 10.26434/chemrxiv.8326202.v1
   for GFN-FF:
   * S. Spicher and S. Grimme, Angew. Chem. Int. Ed., 2020, 59, 15665-15673.
     DOI: 10.1002/anie.202004239
   
   for ALPB and GBSA implicit solvation:
   * S. Ehlert, M. Stahn, S. Spicher, S. Grimme, J. Chem. Theory Comput.,
     2021, 17, 4250-4261. DOI: 10.1021/acs.jctc.1c00471
   
   for ddCOSMO and CPCM-X implicit solvation:
   * M. Stahn, S. Ehlert, S. Grimme, J. Phys. Chem. A,
     2023, XX, XXXX-XXXX. DOI: 10.1021/acs.jpca.3c04382
   
   for DFT-D4:
   * E. Caldeweyher, C. Bannwarth and S. Grimme, J. Chem. Phys., 2017,
     147, 034112. DOI: 10.1063/1.4993215
   * E. Caldeweyher, S. Ehlert, A. Hansen, H. Neugebauer, S. Spicher,
     C. Bannwarth and S. Grimme, J. Chem. Phys., 2019, 150, 154122.
     DOI: 10.1063/1.5090222
   * E. Caldeweyher, J.-M. Mewes, S. Ehlert and S. Grimme, Phys. Chem. Chem. Phys.
     2020, 22, 8499-8512. DOI: 10.1039/D0CP00502A
   
   for sTDA-xTB:
   * S. Grimme and C. Bannwarth, J. Chem. Phys., 2016, 145, 054103.
     DOI: 10.1063/1.4959605
   
   in the mass-spec context:
   * V. Asgeirsson, C. Bauer and S. Grimme, Chem. Sci., 2017, 8, 4879.
     DOI: 10.1039/c7sc00601b
   * J. Koopman and S. Grimme, ACS Omega 2019, 4, 12, 15120-15133.
     DOI: 10.1021/acsomega.9b02011
   
   for metadynamics refer to:
   * S. Grimme, J. Chem. Theory Comput., 2019, 155, 2847-2862
     DOI: 10.1021/acs.jctc.9b00143
   
   for SPH calculations refer to:
   * S. Spicher and S. Grimme, J. Chem. Theory Comput., 2021, 17, 1701-1714
     DOI: 10.1021/acs.jctc.0c01306
   
   for ONIOM refer to:
   * C. Plett, A. Katbashev, S. Ehlert, S. Grimme, M. Bursch,
     Phys. Chem. Chem. Phys., 2023, 25, 17860-17868. DOI: 10.1039/D3CP02178E
   
   for DIPRO refer to:
   * J. Kohn, N. Gildemeister, S. Grimme, D. Fazzi, A. Hansen,
     J. Chem. Phys., 2023, just accepted.
   
   for PTB refer to:
   * S. Grimme, M. Mueller, A. Hansen, J. Chem. Phys., 2023, 158, 124111.
     DOI: 10.1063/5.0137838
   
   with help from (in alphabetical order)
   P. Atkinson, C. Bannwarth, F. Bohle, G. Brandenburg, E. Caldeweyher
   M. Checinski, S. Dohm, S. Ehlert, S. Ehrlich, I. Gerasimov, C. Hölzer
   A. Katbashev, J. Kohn, J. Koopman, C. Lavigne, S. Lehtola, F. März, M. Müller,
   F. Musil, H. Neugebauer, J. Pisarek, C. Plett, P. Pracht, F. Pultar,
   J. Seibert, P. Shushkov, S. Spicher, M. Stahn, M. Steiner, T. Strunk,
   J. Stückrath, T. Rose, and J. Unsleber
   
 * started run on 2025/06/25 at 12:06:42.315     
$$$$$$$$$$$$$$$$$$$$$$$$$$$$$$$$$$$$$$$$$$$$$$$$$$$$$$$$$$$$$$$$$$$$$$$$
 CONSTRAINTS & SCANS: DEBUG SECTION
$$$$$$$$$$$$$$$$$$$$$$$$$$$$$$$$$$$$$$$$$$$$$$$$$$$$$$$$$$$$$$$$$$$$$$$$
   ID    Z sym.   atoms
    1    6 C      1-3, 6
    2    8 O      4, 7
    3    7 N      5
    4   17 Cl     8, 9
    5    1 H      10
$$$$$$$$$$$$$$$$$$$$$$$$$$$$$$$$$$$$$$$$$$$$$$$$$$$$$$$$$$$$$$$$$$$$$$$$

           -------------------------------------------------
          |                Calculation Setup                |
           -------------------------------------------------

          program call               : C:\Users\nkapa\Downloads\xtb-6.7.1pre-windows-x86_64\xtb-6.7.1\bin\xtb.EXE dft_tmp\mol_241.xyz --gfn2 --parallel 8 --verbose
          coordinate file            : dft_tmp\mol_241.xyz
          xtbhome directory          : C:\Users\nkapa\AppData\Roaming\SPB_Data
          path for xtb               : C:\Users\nkapa\Downloads\xtb-6.7.1pre-windows-x86_64\xtb-6.7.1\share\xtb
          xcontrol input file        : dft_tmp\mol_241.xyz
          omp threads                :                     8


           -------------------------------------------------
          |                 G F N 2 - x T B                 |
           -------------------------------------------------

        Reference                      10.1021/acs.jctc.8b01176
      * Hamiltonian:
        H0-scaling (s, p, d)           1.850000    2.230000    2.230000
        zeta-weighting                 0.500000
      * Dispersion:
        s8                             2.700000
        a1                             0.520000
        a2                             5.000000
        s9                             5.000000
      * Repulsion:
        kExp                           1.500000    1.000000
        rExp                           1.000000
      * Coulomb:
        alpha                          2.000000
        third order                    shell-resolved
        anisotropic                    true
        a3                             3.000000
        a5                             4.000000
        cn-shift                       1.200000
        cn-exp                         4.000000
        max-rad                        5.000000


          ...................................................
          :                      SETUP                      :
          :.................................................:
          :  # basis functions                  49          :
          :  # atomic orbitals                  47          :
          :  # shells                           21          :
          :  # electrons                        48          :
          :  max. iterations                   250          :
          :  Hamiltonian                  GFN2-xTB          :
          :  restarted?                      false          :
          :  GBSA solvation                  false          :
          :  PC potential                    false          :
          :  electronic temp.          300.0000000     K    :
          :  accuracy                    1.0000000          :
          :  -> integral cutoff          0.2500000E+02      :
          :  -> integral neglect         0.1000000E-07      :
          :  -> SCF convergence          0.1000000E-05 Eh   :
          :  -> wf. convergence          0.1000000E-03 e    :
          :  Broyden damping             0.4000000          :
          :  net charge                          0          :
          :  unpaired electrons                  0          :
          ...................................................

 iter      E             dE          RMSdq      gap      omega  full diag
   1    -29.3281808 -0.293282E+02  0.592E+00    1.88       0.0  T
   2    -29.3818222 -0.536414E-01  0.301E+00    1.96       1.0  T
   3    -29.3846862 -0.286405E-02  0.201E+00    2.11       1.0  T
   4    -29.3917021 -0.701585E-02  0.462E-01    1.97       1.0  T
   5    -29.3934700 -0.176789E-02  0.180E-01    2.00       1.0  T
   6    -29.3935277 -0.576996E-04  0.112E-01    1.98       1.0  T
   7    -29.3935603 -0.326578E-04  0.777E-02    1.99       1.0  T
   8    -29.3935757 -0.154055E-04  0.451E-02    1.99       1.0  T
   9    -29.3935843 -0.863099E-05  0.176E-02    1.99       1.8  T
  10    -29.3935864 -0.204007E-05  0.543E-03    1.99       5.8  T
  11    -29.3935864 -0.493520E-07  0.208E-03    1.99      15.2  T
  12    -29.3935864 -0.254378E-08  0.163E-03    1.99      19.4  T
  13    -29.3935865 -0.118884E-07  0.574E-04    1.99      55.1  T
  14    -29.3935865 -0.936073E-09  0.174E-04    1.99     182.1  T

   *** convergence criteria satisfied after 14 iterations ***

         #    Occupation            Energy/Eh            Energy/eV
      -------------------------------------------------------------
         1        2.0000           -1.0894844             -29.6464
       ...           ...                  ...                  ...
        18        2.0000           -0.4822000             -13.1213
        19        2.0000           -0.4811952             -13.0940
        20        2.0000           -0.4787309             -13.0269
        21        2.0000           -0.4662356             -12.6869
        22        2.0000           -0.4547160             -12.3735
        23        2.0000           -0.4496612             -12.2359
        24        2.0000           -0.4416107             -12.0168 (HOMO)
        25                         -0.3685082             -10.0276 (LUMO)
        26                         -0.2497135              -6.7951
        27                         -0.2237247              -6.0879
        28                         -0.2068608              -5.6290
        29                         -0.2012313              -5.4758
       ...                                ...                  ...
        47                          0.6141257              16.7112
      -------------------------------------------------------------
                  HL-Gap            0.0731025 Eh            1.9892 eV
             Fermi-level           -0.4050594 Eh          -11.0222 eV

 SCC (total)                   0 d,  0 h,  0 min,  0.008 sec
 SCC setup                      ...        0 min,  0.001 sec ( 12.499%)
 Dispersion                     ...        0 min,  0.000 sec (  0.000%)
 classical contributions        ...        0 min,  0.000 sec (  0.000%)
 integral evaluation            ...        0 min,  0.001 sec ( 12.499%)
 iterations                     ...        0 min,  0.005 sec ( 62.502%)
 molecular gradient             ...        0 min,  0.001 sec ( 12.499%)
 printout                       ...        0 min,  0.000 sec (  0.000%)

         :::::::::::::::::::::::::::::::::::::::::::::::::::::
         ::                     SUMMARY                     ::
         :::::::::::::::::::::::::::::::::::::::::::::::::::::
         :: total energy             -29.200561511249 Eh    ::
         :: gradient norm              0.194065901734 Eh/a0 ::
         :: HOMO-LUMO gap              1.989221187891 eV    ::
         ::.................................................::
         :: HOMO orbital eigv.       -12.016838771486 eV    ::
         :: LUMO orbital eigv.       -10.027617583595 eV    ::
         ::.................................................::
         :: SCC energy               -29.393571867038 Eh    ::
         :: -> isotropic ES            0.059209579027 Eh    ::
         :: -> anisotropic ES          0.000963155933 Eh    ::
         :: -> anisotropic XC          0.000265800582 Eh    ::
         :: -> dispersion             -0.010546018058 Eh    ::
         :: repulsion energy           0.193010355789 Eh    ::
         :: add. restraining           0.000000000000 Eh    ::
         :: total charge              -0.000000000000 e     ::
         ::.................................................::
         :: atomisation energy         3.291876885142 Eh    ::
         :::::::::::::::::::::::::::::::::::::::::::::::::::::

           -------------------------------------------------
          |                Property Printout                |
           -------------------------------------------------

    * Orbital Energies and Occupations

         #    Occupation            Energy/Eh            Energy/eV
      -------------------------------------------------------------
         1        2.0000           -1.0894844             -29.6464
       ...           ...                  ...                  ...
        12        2.0000           -0.5789497             -15.7540
        13        2.0000           -0.5684170             -15.4674
        14        2.0000           -0.5643624             -15.3571
        15        2.0000           -0.5527265             -15.0405
        16        2.0000           -0.5401722             -14.6988
        17        2.0000           -0.5294329             -14.4066
        18        2.0000           -0.4822000             -13.1213
        19        2.0000           -0.4811952             -13.0940
        20        2.0000           -0.4787309             -13.0269
        21        2.0000           -0.4662356             -12.6869
        22        2.0000           -0.4547160             -12.3735
        23        2.0000           -0.4496612             -12.2359
        24        2.0000           -0.4416107             -12.0168 (HOMO)
        25                         -0.3685082             -10.0276 (LUMO)
        26                         -0.2497135              -6.7951
        27                         -0.2237247              -6.0879
        28                         -0.2068608              -5.6290
        29                         -0.2012313              -5.4758
        30                         -0.0805508              -2.1919
        31                         -0.0340824              -0.9274
        32                         -0.0227995              -0.6204
        33                         -0.0198717              -0.5407
        34                         -0.0198098              -0.5391
        35                         -0.0197552              -0.5376
       ...                                ...                  ...
        47                          0.6141257              16.7112
      -------------------------------------------------------------
                  HL-Gap            0.0731025 Eh            1.9892 eV
             Fermi-level           -0.4050594 Eh          -11.0222 eV

     #   Z          covCN         q      C6AA      α(0)
     1   6 C        2.965     0.064    26.569     8.455
     2   6 C        2.965     0.064    26.569     8.455
     3   6 C        2.951     0.273    22.407     7.764
     4   8 O        0.856    -0.332    20.374     6.052
     5   7 N        2.694    -0.170    24.672     7.377
     6   6 C        2.951     0.273    22.407     7.764
     7   8 O        0.856    -0.332    20.374     6.052
     8  17 Cl       0.916    -0.040   100.403    15.329
     9  17 Cl       0.916    -0.040   100.403    15.329
    10   1 H        0.858     0.242     0.917     1.500

 Mol. C6AA /au·bohr⁶  :       2986.614463
 Mol. C8AA /au·bohr⁸  :      91473.936686
 Mol. α(0) /au        :         84.076573


Wiberg/Mayer (AO) data.
largest (>0.10) Wiberg bond orders for each atom

 ---------------------------------------------------------------------------
     #   Z sym  total        # sym  WBO       # sym  WBO       # sym  WBO
 ---------------------------------------------------------------------------
     1   6 C    3.943 --     2 C    1.643     9 Cl   1.043     6 C    1.024
     2   6 C    3.943 --     1 C    1.643     8 Cl   1.043     3 C    1.024
     3   6 C    3.959 --     4 O    1.730     5 N    1.115     2 C    1.024
     4   8 O    2.075 --     3 C    1.730     5 N    0.127
     5   7 N    3.487 --     6 C    1.115     3 C    1.115    10 H    0.909
                             7 O    0.127     4 O    0.127
     6   6 C    3.959 --     7 O    1.730     5 N    1.115     1 C    1.024
     7   8 O    2.075 --     6 C    1.730     5 N    0.127
     8  17 Cl   1.246 --     2 C    1.043
     9  17 Cl   1.246 --     1 C    1.043
    10   1 H    0.942 --     5 N    0.909
 ---------------------------------------------------------------------------

Topologies differ in total number of bonds
Writing topology from bond orders to xtbtopo.mol

molecular dipole:
                 x           y           z       tot (Debye)
 q only:        0.207       0.009      -0.009
   full:       -0.159      -0.007       0.006       0.405
molecular quadrupole (traceless):
                xx          xy          yy          xz          yz          zz
 q only:        6.797       0.782     -11.550      -0.093       0.186       4.752
  q+dip:       11.087       1.097     -14.709      -0.317       0.200       3.622
   full:       10.240       1.101     -15.626      -0.212       0.236       5.385


           -------------------------------------------------
          | TOTAL ENERGY              -29.200561511249 Eh   |
          | GRADIENT NORM               0.194065901734 Eh/α |
          | HOMO-LUMO GAP               1.989221187891 eV   |
           -------------------------------------------------
########################################################################
[WARNING] Runtime exception occurred
-2- restart_readRestart: Dimension missmatch in restart file.
-1- restart_readRestart: Number of electron missmatch in restart file.
########################################################################

------------------------------------------------------------------------
 unit  open   action     filename
  129 false : read       dft_tmp\mol_241.xyz
  129 false : read       dft_tmp\mol_241.xyz
  129 false : read       dft_tmp\mol_241.xyz
  129 false : read       C:\Users\nkapa\Downloads\xtb-6.7.1pre-windows-x86_64\xtb-6.7.1\share\xtb\param_gfn2-xtb.txt
  129 false : read       xtbrestart
  129 false : replaced   charges
  129 false : replaced   wbo
  129 false : replaced   xtbtopo.mol
  129 false : replaced   xtbrestart

------------------------------------------------------------------------
 * finished run on 2025/06/25 at 12:06:42.394     
------------------------------------------------------------------------
 total:
 * wall-time:     0 d,  0 h,  0 min,  0.079 sec
 *  cpu-time:     0 d,  0 h,  0 min,  0.250 sec
 * ratio c/w:     3.165 speedup
 SCF:
 * wall-time:     0 d,  0 h,  0 min,  0.008 sec
 *  cpu-time:     0 d,  0 h,  0 min,  0.000 sec
 * ratio c/w:     0.000 speedup

normal termination of xtb
