      -----------------------------------------------------------      
     |                   =====================                   |     
     |                           x T B                           |     
     |                   =====================                   |     
     |                         S. Grimme                         |     
     |          Mulliken Center for Theoretical Chemistry        |     
     |                    University of Bonn                     |     
      -----------------------------------------------------------      

   * xtb version 6.7.1pre (5071a88) compiled by 'Marcel@Raven' on 2024-07-23

   xtb is free software: you can redistribute it and/or modify it under
   the terms of the GNU Lesser General Public License as published by
   the Free Software Foundation, either version 3 of the License, or
   (at your option) any later version.
   
   xtb is distributed in the hope that it will be useful,
   but WITHOUT ANY WARRANTY; without even the implied warranty of
   MERCHANTABILITY or FITNESS FOR A PARTICULAR PURPOSE.  See the
   GNU Lesser General Public License for more details.
   
   Cite this work as:
   * C. Bannwarth, E. Caldeweyher, S. Ehlert, A. Hansen, P. Pracht,
     J. Seibert, S. Spicher, S. Grimme, WIREs Comput. Mol. Sci., 2020, 11,
     e01493. DOI: 10.1002/wcms.1493
   
   for GFN2-xTB:
   * C. Bannwarth, S. Ehlert and S. Grimme., J. Chem. Theory Comput., 2019,
     15, 1652-1671. DOI: 10.1021/acs.jctc.8b01176
   for GFN1-xTB:
   * S. Grimme, C. Bannwarth, P. Shushkov, J. Chem. Theory Comput., 2017,
     13, 1989-2009. DOI: 10.1021/acs.jctc.7b00118
   for GFN0-xTB:
   * P. Pracht, E. Caldeweyher, S. Ehlert, S. Grimme, ChemRxiv, 2019, preprint.
     DOI: 10.26434/chemrxiv.8326202.v1
   for GFN-FF:
   * S. Spicher and S. Grimme, Angew. Chem. Int. Ed., 2020, 59, 15665-15673.
     DOI: 10.1002/anie.202004239
   
   for ALPB and GBSA implicit solvation:
   * S. Ehlert, M. Stahn, S. Spicher, S. Grimme, J. Chem. Theory Comput.,
     2021, 17, 4250-4261. DOI: 10.1021/acs.jctc.1c00471
   
   for ddCOSMO and CPCM-X implicit solvation:
   * M. Stahn, S. Ehlert, S. Grimme, J. Phys. Chem. A,
     2023, XX, XXXX-XXXX. DOI: 10.1021/acs.jpca.3c04382
   
   for DFT-D4:
   * E. Caldeweyher, C. Bannwarth and S. Grimme, J. Chem. Phys., 2017,
     147, 034112. DOI: 10.1063/1.4993215
   * E. Caldeweyher, S. Ehlert, A. Hansen, H. Neugebauer, S. Spicher,
     C. Bannwarth and S. Grimme, J. Chem. Phys., 2019, 150, 154122.
     DOI: 10.1063/1.5090222
   * E. Caldeweyher, J.-M. Mewes, S. Ehlert and S. Grimme, Phys. Chem. Chem. Phys.
     2020, 22, 8499-8512. DOI: 10.1039/D0CP00502A
   
   for sTDA-xTB:
   * S. Grimme and C. Bannwarth, J. Chem. Phys., 2016, 145, 054103.
     DOI: 10.1063/1.4959605
   
   in the mass-spec context:
   * V. Asgeirsson, C. Bauer and S. Grimme, Chem. Sci., 2017, 8, 4879.
     DOI: 10.1039/c7sc00601b
   * J. Koopman and S. Grimme, ACS Omega 2019, 4, 12, 15120-15133.
     DOI: 10.1021/acsomega.9b02011
   
   for metadynamics refer to:
   * S. Grimme, J. Chem. Theory Comput., 2019, 155, 2847-2862
     DOI: 10.1021/acs.jctc.9b00143
   
   for SPH calculations refer to:
   * S. Spicher and S. Grimme, J. Chem. Theory Comput., 2021, 17, 1701-1714
     DOI: 10.1021/acs.jctc.0c01306
   
   for ONIOM refer to:
   * C. Plett, A. Katbashev, S. Ehlert, S. Grimme, M. Bursch,
     Phys. Chem. Chem. Phys., 2023, 25, 17860-17868. DOI: 10.1039/D3CP02178E
   
   for DIPRO refer to:
   * J. Kohn, N. Gildemeister, S. Grimme, D. Fazzi, A. Hansen,
     J. Chem. Phys., 2023, just accepted.
   
   for PTB refer to:
   * S. Grimme, M. Mueller, A. Hansen, J. Chem. Phys., 2023, 158, 124111.
     DOI: 10.1063/5.0137838
   
   with help from (in alphabetical order)
   P. Atkinson, C. Bannwarth, F. Bohle, G. Brandenburg, E. Caldeweyher
   M. Checinski, S. Dohm, S. Ehlert, S. Ehrlich, I. Gerasimov, C. Hölzer
   A. Katbashev, J. Kohn, J. Koopman, C. Lavigne, S. Lehtola, F. März, M. Müller,
   F. Musil, H. Neugebauer, J. Pisarek, C. Plett, P. Pracht, F. Pultar,
   J. Seibert, P. Shushkov, S. Spicher, M. Stahn, M. Steiner, T. Strunk,
   J. Stückrath, T. Rose, and J. Unsleber
   
 * started run on 2025/06/25 at 12:06:11.831     
$$$$$$$$$$$$$$$$$$$$$$$$$$$$$$$$$$$$$$$$$$$$$$$$$$$$$$$$$$$$$$$$$$$$$$$$
 CONSTRAINTS & SCANS: DEBUG SECTION
$$$$$$$$$$$$$$$$$$$$$$$$$$$$$$$$$$$$$$$$$$$$$$$$$$$$$$$$$$$$$$$$$$$$$$$$
   ID    Z sym.   atoms
    1    6 C      1-5
    2    8 O      6, 7
    3    1 H      8-15
$$$$$$$$$$$$$$$$$$$$$$$$$$$$$$$$$$$$$$$$$$$$$$$$$$$$$$$$$$$$$$$$$$$$$$$$

           -------------------------------------------------
          |                Calculation Setup                |
           -------------------------------------------------

          program call               : C:\Users\nkapa\Downloads\xtb-6.7.1pre-windows-x86_64\xtb-6.7.1\bin\xtb.EXE dft_tmp\mol_35.xyz --gfn2 --parallel 8 --verbose
          coordinate file            : dft_tmp\mol_35.xyz
          xtbhome directory          : C:\Users\nkapa\AppData\Roaming\SPB_Data
          path for xtb               : C:\Users\nkapa\Downloads\xtb-6.7.1pre-windows-x86_64\xtb-6.7.1\share\xtb
          xcontrol input file        : dft_tmp\mol_35.xyz
          omp threads                :                     8


           -------------------------------------------------
          |                 G F N 2 - x T B                 |
           -------------------------------------------------

        Reference                      10.1021/acs.jctc.8b01176
      * Hamiltonian:
        H0-scaling (s, p, d)           1.850000    2.230000    2.230000
        zeta-weighting                 0.500000
      * Dispersion:
        s8                             2.700000
        a1                             0.520000
        a2                             5.000000
        s9                             5.000000
      * Repulsion:
        kExp                           1.500000    1.000000
        rExp                           1.000000
      * Coulomb:
        alpha                          2.000000
        third order                    shell-resolved
        anisotropic                    true
        a3                             3.000000
        a5                             4.000000
        cn-shift                       1.200000
        cn-exp                         4.000000
        max-rad                        5.000000


          ...................................................
          :                      SETUP                      :
          :.................................................:
          :  # basis functions                  36          :
          :  # atomic orbitals                  36          :
          :  # shells                           22          :
          :  # electrons                        40          :
          :  max. iterations                   250          :
          :  Hamiltonian                  GFN2-xTB          :
          :  restarted?                      false          :
          :  GBSA solvation                  false          :
          :  PC potential                    false          :
          :  electronic temp.          300.0000000     K    :
          :  accuracy                    1.0000000          :
          :  -> integral cutoff          0.2500000E+02      :
          :  -> integral neglect         0.1000000E-07      :
          :  -> SCF convergence          0.1000000E-05 Eh   :
          :  -> wf. convergence          0.1000000E-03 e    :
          :  Broyden damping             0.4000000          :
          :  net charge                          0          :
          :  unpaired electrons                  0          :
          ...................................................

 iter      E             dE          RMSdq      gap      omega  full diag
   1    -23.0696547 -0.230697E+02  0.409E+00    5.42       0.0  T
   2    -23.1309354 -0.612807E-01  0.214E+00    4.09       1.0  T
   3    -23.1376715 -0.673611E-02  0.132E+00    4.75       1.0  T
   4    -23.1415013 -0.382986E-02  0.182E-01    4.42       1.0  T
   5    -23.1417622 -0.260900E-03  0.736E-02    4.49       1.0  T
   6    -23.1417651 -0.286819E-05  0.330E-02    4.48       1.0  T
   7    -23.1417673 -0.216047E-05  0.773E-03    4.48       3.3  T
   8    -23.1417674 -0.970759E-07  0.302E-03    4.48       8.5  T
   9    -23.1417674 -0.176193E-07  0.118E-03    4.48      22.0  T
  10    -23.1417674 -0.278198E-08  0.326E-04    4.48      79.2  T
  11    -23.1417674 -0.397392E-09  0.105E-04    4.48     246.8  T

   *** convergence criteria satisfied after 11 iterations ***

         #    Occupation            Energy/Eh            Energy/eV
      -------------------------------------------------------------
         1        2.0000           -0.7429913             -20.2178
       ...           ...                  ...                  ...
        14        2.0000           -0.5002267             -13.6119
        15        2.0000           -0.4912617             -13.3679
        16        2.0000           -0.4833633             -13.1530
        17        2.0000           -0.4666948             -12.6994
        18        2.0000           -0.4601769             -12.5221
        19        2.0000           -0.4405572             -11.9882
        20        2.0000           -0.4156676             -11.3109 (HOMO)
        21                         -0.2509816              -6.8296 (LUMO)
        22                         -0.0098480              -0.2680
        23                          0.0313979               0.8544
        24                          0.0456339               1.2418
        25                          0.0618592               1.6833
       ...                                ...                  ...
        36                          0.4789937              13.0341
      -------------------------------------------------------------
                  HL-Gap            0.1646860 Eh            4.4813 eV
             Fermi-level           -0.3333246 Eh           -9.0702 eV

 SCC (total)                   0 d,  0 h,  0 min,  0.004 sec
 SCC setup                      ...        0 min,  0.000 sec (  0.000%)
 Dispersion                     ...        0 min,  0.000 sec (  0.000%)
 classical contributions        ...        0 min,  0.000 sec (  0.000%)
 integral evaluation            ...        0 min,  0.000 sec (  0.000%)
 iterations                     ...        0 min,  0.003 sec ( 74.997%)
 molecular gradient             ...        0 min,  0.001 sec ( 25.003%)
 printout                       ...        0 min,  0.000 sec (  0.000%)

         :::::::::::::::::::::::::::::::::::::::::::::::::::::
         ::                     SUMMARY                     ::
         :::::::::::::::::::::::::::::::::::::::::::::::::::::
         :: total energy             -22.928313879303 Eh    ::
         :: gradient norm              0.134129458288 Eh/a0 ::
         :: HOMO-LUMO gap              4.481333511808 eV    ::
         ::.................................................::
         :: HOMO orbital eigv.       -11.310891143524 eV    ::
         :: LUMO orbital eigv.        -6.829557631717 eV    ::
         ::.................................................::
         :: SCC energy               -23.141749418500 Eh    ::
         :: -> isotropic ES            0.047733468552 Eh    ::
         :: -> anisotropic ES          0.003067564620 Eh    ::
         :: -> anisotropic XC          0.006107719580 Eh    ::
         :: -> dispersion             -0.008919958507 Eh    ::
         :: repulsion energy           0.213435539197 Eh    ::
         :: add. restraining           0.000000000000 Eh    ::
         :: total charge              -0.000000000000 e     ::
         ::.................................................::
         :: atomisation energy         4.134468837593 Eh    ::
         :::::::::::::::::::::::::::::::::::::::::::::::::::::

           -------------------------------------------------
          |                Property Printout                |
           -------------------------------------------------

    * Orbital Energies and Occupations

         #    Occupation            Energy/Eh            Energy/eV
      -------------------------------------------------------------
         1        2.0000           -0.7429913             -20.2178
       ...           ...                  ...                  ...
         8        2.0000           -0.5874033             -15.9841
         9        2.0000           -0.5584027             -15.1949
        10        2.0000           -0.5419580             -14.7474
        11        2.0000           -0.5290546             -14.3963
        12        2.0000           -0.5251143             -14.2891
        13        2.0000           -0.5117960             -13.9267
        14        2.0000           -0.5002267             -13.6119
        15        2.0000           -0.4912617             -13.3679
        16        2.0000           -0.4833633             -13.1530
        17        2.0000           -0.4666948             -12.6994
        18        2.0000           -0.4601769             -12.5221
        19        2.0000           -0.4405572             -11.9882
        20        2.0000           -0.4156676             -11.3109 (HOMO)
        21                         -0.2509816              -6.8296 (LUMO)
        22                         -0.0098480              -0.2680
        23                          0.0313979               0.8544
        24                          0.0456339               1.2418
        25                          0.0618592               1.6833
        26                          0.0846362               2.3031
        27                          0.1013640               2.7583
        28                          0.1150177               3.1298
        29                          0.1227854               3.3412
        30                          0.1540297               4.1914
        31                          0.1786243               4.8606
       ...                                ...                  ...
        36                          0.4789937              13.0341
      -------------------------------------------------------------
                  HL-Gap            0.1646860 Eh            4.4813 eV
             Fermi-level           -0.3333246 Eh           -9.0702 eV

     #   Z          covCN         q      C6AA      α(0)
     1   6 C        3.741    -0.113    22.734     6.803
     2   6 C        3.777     0.112    18.766     6.172
     3   6 C        3.823    -0.074    21.895     6.659
     4   6 C        3.803    -0.086    22.138     6.699
     5   6 C        2.769     0.346    21.120     7.526
     6   8 O        0.856    -0.399    21.670     6.241
     7   8 O        1.704    -0.252    18.172     5.755
     8   1 H        0.922     0.049     2.333     2.389
     9   1 H        0.921     0.056     2.246     2.344
    10   1 H        0.922     0.060     2.196     2.317
    11   1 H        0.921     0.043     2.409     2.427
    12   1 H        0.921     0.052     2.299     2.371
    13   1 H        0.921     0.045     2.384     2.415
    14   1 H        0.921     0.080     1.976     2.199
    15   1 H        0.921     0.079     1.985     2.204

 Mol. C6AA /au·bohr⁶  :       1920.018590
 Mol. C8AA /au·bohr⁸  :      42105.726325
 Mol. α(0) /au        :         64.520008


Wiberg/Mayer (AO) data.
largest (>0.10) Wiberg bond orders for each atom

 ---------------------------------------------------------------------------
     #   Z sym  total        # sym  WBO       # sym  WBO       # sym  WBO
 ---------------------------------------------------------------------------
     1   6 C    3.991 --     2 C    1.005     9 H    0.984     8 H    0.984
                            10 H    0.983
     2   6 C    3.933 --     1 C    1.005     3 C    0.981    11 H    0.959
                             7 O    0.952
     3   6 C    3.994 --     4 C    1.007    13 H    0.983     2 C    0.981
                            12 H    0.979
     4   6 C    3.996 --     3 C    1.007     5 C    1.003    14 H    0.954
                            15 H    0.948
     5   6 C    3.920 --     6 O    1.744     7 O    1.116     4 C    1.003
     6   8 O    2.020 --     5 C    1.744     7 O    0.161
     7   8 O    2.316 --     5 C    1.116     2 C    0.952     6 O    0.161
     8   1 H    0.997 --     1 C    0.984
     9   1 H    0.997 --     1 C    0.984
    10   1 H    0.996 --     1 C    0.983
    11   1 H    0.998 --     2 C    0.959
    12   1 H    0.997 --     3 C    0.979
    13   1 H    0.998 --     3 C    0.983
    14   1 H    0.994 --     4 C    0.954
    15   1 H    0.994 --     4 C    0.948
 ---------------------------------------------------------------------------

Topologies differ in total number of bonds
Writing topology from bond orders to xtbtopo.mol

molecular dipole:
                 x           y           z       tot (Debye)
 q only:        1.080      -1.359       0.764
   full:        1.178      -1.570       0.816       5.402
molecular quadrupole (traceless):
                xx          xy          yy          xz          yz          zz
 q only:       -0.615       7.692      -1.768      -4.004       3.397       2.383
  q+dip:       -2.933       9.783      -1.745      -4.813       5.424       4.678
   full:       -2.517       9.603      -1.837      -4.479       5.359       4.354


           -------------------------------------------------
          | TOTAL ENERGY              -22.928313879303 Eh   |
          | GRADIENT NORM               0.134129458288 Eh/α |
          | HOMO-LUMO GAP               4.481333511808 eV   |
           -------------------------------------------------
########################################################################
[WARNING] Runtime exception occurred
-2- restart_readRestart: Dimension missmatch in restart file.
-1- restart_readRestart: Number of electron missmatch in restart file.
########################################################################

------------------------------------------------------------------------
 unit  open   action     filename
  129 false : read       dft_tmp\mol_35.xyz
  129 false : read       dft_tmp\mol_35.xyz
  129 false : read       dft_tmp\mol_35.xyz
  129 false : read       C:\Users\nkapa\Downloads\xtb-6.7.1pre-windows-x86_64\xtb-6.7.1\share\xtb\param_gfn2-xtb.txt
  129 false : read       xtbrestart
  129 false : replaced   charges
  129 false : replaced   wbo
  129 false : replaced   xtbtopo.mol
  129 false : replaced   xtbrestart

------------------------------------------------------------------------
 * finished run on 2025/06/25 at 12:06:11.855     
------------------------------------------------------------------------
 total:
 * wall-time:     0 d,  0 h,  0 min,  0.023 sec
 *  cpu-time:     0 d,  0 h,  0 min,  0.125 sec
 * ratio c/w:     5.435 speedup
 SCF:
 * wall-time:     0 d,  0 h,  0 min,  0.004 sec
 *  cpu-time:     0 d,  0 h,  0 min,  0.000 sec
 * ratio c/w:     0.000 speedup

normal termination of xtb
