      -----------------------------------------------------------      
     |                   =====================                   |     
     |                           x T B                           |     
     |                   =====================                   |     
     |                         S. Grimme                         |     
     |          Mulliken Center for Theoretical Chemistry        |     
     |                    University of Bonn                     |     
      -----------------------------------------------------------      

   * xtb version 6.7.1pre (5071a88) compiled by 'Marcel@Raven' on 2024-07-23

   xtb is free software: you can redistribute it and/or modify it under
   the terms of the GNU Lesser General Public License as published by
   the Free Software Foundation, either version 3 of the License, or
   (at your option) any later version.
   
   xtb is distributed in the hope that it will be useful,
   but WITHOUT ANY WARRANTY; without even the implied warranty of
   MERCHANTABILITY or FITNESS FOR A PARTICULAR PURPOSE.  See the
   GNU Lesser General Public License for more details.
   
   Cite this work as:
   * C. Bannwarth, E. Caldeweyher, S. Ehlert, A. Hansen, P. Pracht,
     J. Seibert, S. Spicher, S. Grimme, WIREs Comput. Mol. Sci., 2020, 11,
     e01493. DOI: 10.1002/wcms.1493
   
   for GFN2-xTB:
   * C. Bannwarth, S. Ehlert and S. Grimme., J. Chem. Theory Comput., 2019,
     15, 1652-1671. DOI: 10.1021/acs.jctc.8b01176
   for GFN1-xTB:
   * S. Grimme, C. Bannwarth, P. Shushkov, J. Chem. Theory Comput., 2017,
     13, 1989-2009. DOI: 10.1021/acs.jctc.7b00118
   for GFN0-xTB:
   * P. Pracht, E. Caldeweyher, S. Ehlert, S. Grimme, ChemRxiv, 2019, preprint.
     DOI: 10.26434/chemrxiv.8326202.v1
   for GFN-FF:
   * S. Spicher and S. Grimme, Angew. Chem. Int. Ed., 2020, 59, 15665-15673.
     DOI: 10.1002/anie.202004239
   
   for ALPB and GBSA implicit solvation:
   * S. Ehlert, M. Stahn, S. Spicher, S. Grimme, J. Chem. Theory Comput.,
     2021, 17, 4250-4261. DOI: 10.1021/acs.jctc.1c00471
   
   for ddCOSMO and CPCM-X implicit solvation:
   * M. Stahn, S. Ehlert, S. Grimme, J. Phys. Chem. A,
     2023, XX, XXXX-XXXX. DOI: 10.1021/acs.jpca.3c04382
   
   for DFT-D4:
   * E. Caldeweyher, C. Bannwarth and S. Grimme, J. Chem. Phys., 2017,
     147, 034112. DOI: 10.1063/1.4993215
   * E. Caldeweyher, S. Ehlert, A. Hansen, H. Neugebauer, S. Spicher,
     C. Bannwarth and S. Grimme, J. Chem. Phys., 2019, 150, 154122.
     DOI: 10.1063/1.5090222
   * E. Caldeweyher, J.-M. Mewes, S. Ehlert and S. Grimme, Phys. Chem. Chem. Phys.
     2020, 22, 8499-8512. DOI: 10.1039/D0CP00502A
   
   for sTDA-xTB:
   * S. Grimme and C. Bannwarth, J. Chem. Phys., 2016, 145, 054103.
     DOI: 10.1063/1.4959605
   
   in the mass-spec context:
   * V. Asgeirsson, C. Bauer and S. Grimme, Chem. Sci., 2017, 8, 4879.
     DOI: 10.1039/c7sc00601b
   * J. Koopman and S. Grimme, ACS Omega 2019, 4, 12, 15120-15133.
     DOI: 10.1021/acsomega.9b02011
   
   for metadynamics refer to:
   * S. Grimme, J. Chem. Theory Comput., 2019, 155, 2847-2862
     DOI: 10.1021/acs.jctc.9b00143
   
   for SPH calculations refer to:
   * S. Spicher and S. Grimme, J. Chem. Theory Comput., 2021, 17, 1701-1714
     DOI: 10.1021/acs.jctc.0c01306
   
   for ONIOM refer to:
   * C. Plett, A. Katbashev, S. Ehlert, S. Grimme, M. Bursch,
     Phys. Chem. Chem. Phys., 2023, 25, 17860-17868. DOI: 10.1039/D3CP02178E
   
   for DIPRO refer to:
   * J. Kohn, N. Gildemeister, S. Grimme, D. Fazzi, A. Hansen,
     J. Chem. Phys., 2023, just accepted.
   
   for PTB refer to:
   * S. Grimme, M. Mueller, A. Hansen, J. Chem. Phys., 2023, 158, 124111.
     DOI: 10.1063/5.0137838
   
   with help from (in alphabetical order)
   P. Atkinson, C. Bannwarth, F. Bohle, G. Brandenburg, E. Caldeweyher
   M. Checinski, S. Dohm, S. Ehlert, S. Ehrlich, I. Gerasimov, C. Hölzer
   A. Katbashev, J. Kohn, J. Koopman, C. Lavigne, S. Lehtola, F. März, M. Müller,
   F. Musil, H. Neugebauer, J. Pisarek, C. Plett, P. Pracht, F. Pultar,
   J. Seibert, P. Shushkov, S. Spicher, M. Stahn, M. Steiner, T. Strunk,
   J. Stückrath, T. Rose, and J. Unsleber
   
 * started run on 2025/06/25 at 12:06:20.254     
$$$$$$$$$$$$$$$$$$$$$$$$$$$$$$$$$$$$$$$$$$$$$$$$$$$$$$$$$$$$$$$$$$$$$$$$
 CONSTRAINTS & SCANS: DEBUG SECTION
$$$$$$$$$$$$$$$$$$$$$$$$$$$$$$$$$$$$$$$$$$$$$$$$$$$$$$$$$$$$$$$$$$$$$$$$
   ID    Z sym.   atoms
    1    7 N      1, 10
    2    6 C      2, 3, 5, 6, 8, 9
    3    8 O      4, 7
    4    1 H      11-26
$$$$$$$$$$$$$$$$$$$$$$$$$$$$$$$$$$$$$$$$$$$$$$$$$$$$$$$$$$$$$$$$$$$$$$$$

           -------------------------------------------------
          |                Calculation Setup                |
           -------------------------------------------------

          program call               : C:\Users\nkapa\Downloads\xtb-6.7.1pre-windows-x86_64\xtb-6.7.1\bin\xtb.EXE dft_tmp\mol_90.xyz --gfn2 --parallel 8 --verbose
          coordinate file            : dft_tmp\mol_90.xyz
          xtbhome directory          : C:\Users\nkapa\AppData\Roaming\SPB_Data
          path for xtb               : C:\Users\nkapa\Downloads\xtb-6.7.1pre-windows-x86_64\xtb-6.7.1\share\xtb
          xcontrol input file        : dft_tmp\mol_90.xyz
          omp threads                :                     8


           -------------------------------------------------
          |                 G F N 2 - x T B                 |
           -------------------------------------------------

        Reference                      10.1021/acs.jctc.8b01176
      * Hamiltonian:
        H0-scaling (s, p, d)           1.850000    2.230000    2.230000
        zeta-weighting                 0.500000
      * Dispersion:
        s8                             2.700000
        a1                             0.520000
        a2                             5.000000
        s9                             5.000000
      * Repulsion:
        kExp                           1.500000    1.000000
        rExp                           1.000000
      * Coulomb:
        alpha                          2.000000
        third order                    shell-resolved
        anisotropic                    true
        a3                             3.000000
        a5                             4.000000
        cn-shift                       1.200000
        cn-exp                         4.000000
        max-rad                        5.000000


          ...................................................
          :                      SETUP                      :
          :.................................................:
          :  # basis functions                  56          :
          :  # atomic orbitals                  56          :
          :  # shells                           36          :
          :  # electrons                        62          :
          :  max. iterations                   250          :
          :  Hamiltonian                  GFN2-xTB          :
          :  restarted?                      false          :
          :  GBSA solvation                  false          :
          :  PC potential                    false          :
          :  electronic temp.          300.0000000     K    :
          :  accuracy                    1.0000000          :
          :  -> integral cutoff          0.2500000E+02      :
          :  -> integral neglect         0.1000000E-07      :
          :  -> SCF convergence          0.1000000E-05 Eh   :
          :  -> wf. convergence          0.1000000E-03 e    :
          :  Broyden damping             0.4000000          :
          :  net charge                          0          :
          :  unpaired electrons                  0          :
          ...................................................

 iter      E             dE          RMSdq      gap      omega  full diag
   1    -35.1762729 -0.351763E+02  0.384E+00    9.41       0.0  T
   2    -35.2386417 -0.623688E-01  0.200E+00    9.61       1.0  T
   3    -35.2401564 -0.151470E-02  0.805E-01    9.79       1.0  T
   4    -35.2405523 -0.395872E-03  0.127E-01    9.71       1.0  T
   5    -35.2406244 -0.721338E-04  0.599E-02    9.70       1.0  T
   6    -35.2406284 -0.395155E-05  0.216E-02    9.69       1.0  T
   7    -35.2406292 -0.827829E-06  0.372E-03    9.69       5.3  T
   8    -35.2406292 -0.195793E-07  0.993E-04    9.69      19.8  T
   9    -35.2406292 -0.358086E-08  0.305E-04    9.69      64.4  T

   *** convergence criteria satisfied after 9 iterations ***

         #    Occupation            Energy/Eh            Energy/eV
      -------------------------------------------------------------
         1        2.0000           -0.7040688             -19.1587
       ...           ...                  ...                  ...
        25        2.0000           -0.4523556             -12.3092
        26        2.0000           -0.4459332             -12.1345
        27        2.0000           -0.4393018             -11.9540
        28        2.0000           -0.4271115             -11.6223
        29        2.0000           -0.3985031             -10.8438
        30        2.0000           -0.3735377             -10.1645
        31        2.0000           -0.3692697             -10.0483 (HOMO)
        32                         -0.0130179              -0.3542 (LUMO)
        33                          0.0120636               0.3283
        34                          0.0291337               0.7928
        35                          0.0535469               1.4571
        36                          0.0648837               1.7656
       ...                                ...                  ...
        56                          0.2743161               7.4645
      -------------------------------------------------------------
                  HL-Gap            0.3562519 Eh            9.6941 eV
             Fermi-level           -0.1911438 Eh           -5.2013 eV

 SCC (total)                   0 d,  0 h,  0 min,  0.007 sec
 SCC setup                      ...        0 min,  0.000 sec (  0.000%)
 Dispersion                     ...        0 min,  0.000 sec (  0.000%)
 classical contributions        ...        0 min,  0.000 sec (  0.000%)
 integral evaluation            ...        0 min,  0.001 sec ( 14.285%)
 iterations                     ...        0 min,  0.004 sec ( 57.146%)
 molecular gradient             ...        0 min,  0.001 sec ( 14.285%)
 printout                       ...        0 min,  0.001 sec ( 14.285%)

         :::::::::::::::::::::::::::::::::::::::::::::::::::::
         ::                     SUMMARY                     ::
         :::::::::::::::::::::::::::::::::::::::::::::::::::::
         :: total energy             -34.927019858349 Eh    ::
         :: gradient norm              0.072777106759 Eh/a0 ::
         :: HOMO-LUMO gap              9.694106452803 eV    ::
         ::.................................................::
         :: HOMO orbital eigv.       -10.048340233897 eV    ::
         :: LUMO orbital eigv.        -0.354233781094 eV    ::
         ::.................................................::
         :: SCC energy               -35.240708038673 Eh    ::
         :: -> isotropic ES            0.055321549925 Eh    ::
         :: -> anisotropic ES          0.009287032289 Eh    ::
         :: -> anisotropic XC          0.016981541524 Eh    ::
         :: -> dispersion             -0.015924012921 Eh    ::
         :: repulsion energy           0.313688180324 Eh    ::
         :: add. restraining           0.000000000000 Eh    ::
         :: total charge              -0.000000000000 e     ::
         ::.................................................::
         :: atomisation energy         6.301080400703 Eh    ::
         :::::::::::::::::::::::::::::::::::::::::::::::::::::

           -------------------------------------------------
          |                Property Printout                |
           -------------------------------------------------

    * Orbital Energies and Occupations

         #    Occupation            Energy/Eh            Energy/eV
      -------------------------------------------------------------
         1        2.0000           -0.7040688             -19.1587
       ...           ...                  ...                  ...
        19        2.0000           -0.5057132             -13.7612
        20        2.0000           -0.4898133             -13.3285
        21        2.0000           -0.4840028             -13.1704
        22        2.0000           -0.4815181             -13.1028
        23        2.0000           -0.4727025             -12.8629
        24        2.0000           -0.4579525             -12.4615
        25        2.0000           -0.4523556             -12.3092
        26        2.0000           -0.4459332             -12.1345
        27        2.0000           -0.4393018             -11.9540
        28        2.0000           -0.4271115             -11.6223
        29        2.0000           -0.3985031             -10.8438
        30        2.0000           -0.3735377             -10.1645
        31        2.0000           -0.3692697             -10.0483 (HOMO)
        32                         -0.0130179              -0.3542 (LUMO)
        33                          0.0120636               0.3283
        34                          0.0291337               0.7928
        35                          0.0535469               1.4571
        36                          0.0648837               1.7656
        37                          0.0792703               2.1571
        38                          0.0855892               2.3290
        39                          0.0900127               2.4494
        40                          0.1006212               2.7380
        41                          0.1015704               2.7639
        42                          0.1061472               2.8884
       ...                                ...                  ...
        56                          0.2743161               7.4645
      -------------------------------------------------------------
                  HL-Gap            0.3562519 Eh            9.6941 eV
             Fermi-level           -0.1911438 Eh           -5.2013 eV

     #   Z          covCN         q      C6AA      α(0)
     1   7 N        2.623    -0.331    28.533     7.933
     2   6 C        3.724     0.006    20.582     6.478
     3   6 C        3.703     0.074    19.496     6.313
     4   8 O        1.700    -0.320    19.348     5.939
     5   6 C        3.702     0.072    19.525     6.318
     6   6 C        3.701     0.073    19.506     6.315
     7   8 O        1.699    -0.311    19.182     5.913
     8   6 C        3.703     0.073    19.498     6.313
     9   6 C        3.724     0.019    20.358     6.443
    10   7 N        2.624    -0.330    28.486     7.927
    11   1 H        0.857     0.134     1.517     1.929
    12   1 H        0.857     0.135     1.509     1.924
    13   1 H        0.921     0.051     2.310     2.377
    14   1 H        0.921     0.041     2.430     2.438
    15   1 H        0.922     0.038     2.482     2.464
    16   1 H        0.921     0.018     2.762     2.599
    17   1 H        0.922     0.045     2.384     2.415
    18   1 H        0.921     0.037     2.488     2.467
    19   1 H        0.922     0.041     2.433     2.439
    20   1 H        0.921     0.035     2.521     2.483
    21   1 H        0.921     0.022     2.701     2.570
    22   1 H        0.921     0.059     2.214     2.327
    23   1 H        0.921     0.032     2.559     2.502
    24   1 H        0.921     0.008     2.916     2.671
    25   1 H        0.857     0.133     1.524     1.934
    26   1 H        0.857     0.145     1.437     1.878

 Mol. C6AA /au·bohr⁶  :       4891.137207
 Mol. C8AA /au·bohr⁸  :      99741.637193
 Mol. α(0) /au        :        103.309942


Wiberg/Mayer (AO) data.
largest (>0.10) Wiberg bond orders for each atom

 ---------------------------------------------------------------------------
     #   Z sym  total        # sym  WBO       # sym  WBO       # sym  WBO
 ---------------------------------------------------------------------------
     1   7 N    3.008 --     2 C    1.029    11 H    0.968    12 H    0.967
     2   6 C    3.984 --     1 N    1.029     3 C    0.985    13 H    0.973
                            14 H    0.972
     3   6 C    3.950 --     2 C    0.985     4 O    0.981    15 H    0.969
                            16 H    0.967
     4   8 O    2.073 --     5 C    0.986     3 C    0.981
     5   6 C    3.952 --     4 O    0.986     6 C    0.985    17 H    0.967
                            18 H    0.967
     6   6 C    3.955 --     7 O    0.989     5 C    0.985    19 H    0.968
                            20 H    0.966
     7   8 O    2.079 --     6 C    0.989     8 C    0.984
     8   6 C    3.952 --     9 C    0.994     7 O    0.984    22 H    0.967
                            21 H    0.967
     9   6 C    3.991 --    10 N    1.027     8 C    0.994    23 H    0.975
                            24 H    0.969
    10   7 N    2.998 --     9 C    1.027    25 H    0.969    26 H    0.966
    11   1 H    0.982 --     1 N    0.968
    12   1 H    0.982 --     1 N    0.967
    13   1 H    0.997 --     2 C    0.973
    14   1 H    0.998 --     2 C    0.972
    15   1 H    0.999 --     3 C    0.969
    16   1 H    1.000 --     3 C    0.967
    17   1 H    0.998 --     5 C    0.967
    18   1 H    0.999 --     5 C    0.967
    19   1 H    0.998 --     6 C    0.968
    20   1 H    0.999 --     6 C    0.966
    21   1 H    0.999 --     8 C    0.967
    22   1 H    0.997 --     8 C    0.967
    23   1 H    0.999 --     9 C    0.975
    24   1 H    1.000 --     9 C    0.969
    25   1 H    0.982 --    10 N    0.969
    26   1 H    0.979 --    10 N    0.966
 ---------------------------------------------------------------------------

Topologies differ in total number of bonds
Writing topology from bond orders to xtbtopo.mol

molecular dipole:
                 x           y           z       tot (Debye)
 q only:       -0.104       0.280       0.107
   full:       -0.305       0.890       0.384       2.583
molecular quadrupole (traceless):
                xx          xy          yy          xz          yz          zz
 q only:        1.425       2.262       2.700      -4.483      -1.164      -4.125
  q+dip:       -6.845       1.964       9.130      -8.054      -1.783      -2.285
   full:       -5.577       2.626       8.302      -8.036      -2.187      -2.725


           -------------------------------------------------
          | TOTAL ENERGY              -34.927019858349 Eh   |
          | GRADIENT NORM               0.072777106759 Eh/α |
          | HOMO-LUMO GAP               9.694106452803 eV   |
           -------------------------------------------------
########################################################################
[WARNING] Runtime exception occurred
-3- restart_readRestart: Dimension missmatch in restart file.
-2- restart_readRestart: Multiplicity missmatch in restart file.
-1- restart_readRestart: Number of electron missmatch in restart file.
########################################################################

------------------------------------------------------------------------
 unit  open   action     filename
  129 false : read       dft_tmp\mol_90.xyz
  129 false : read       dft_tmp\mol_90.xyz
  129 false : read       dft_tmp\mol_90.xyz
  129 false : read       C:\Users\nkapa\Downloads\xtb-6.7.1pre-windows-x86_64\xtb-6.7.1\share\xtb\param_gfn2-xtb.txt
  129 false : read       xtbrestart
  129 false : replaced   charges
  129 false : replaced   wbo
  129 false : replaced   xtbtopo.mol
  129 false : replaced   xtbrestart

------------------------------------------------------------------------
 * finished run on 2025/06/25 at 12:06:20.301     
------------------------------------------------------------------------
 total:
 * wall-time:     0 d,  0 h,  0 min,  0.045 sec
 *  cpu-time:     0 d,  0 h,  0 min,  0.250 sec
 * ratio c/w:     5.556 speedup
 SCF:
 * wall-time:     0 d,  0 h,  0 min,  0.007 sec
 *  cpu-time:     0 d,  0 h,  0 min,  0.000 sec
 * ratio c/w:     0.000 speedup

normal termination of xtb
