19

C -1.902727 0.971325 0.281646
C -1.270651 -0.377668 -0.073708
C -2.028536 -1.519660 0.611185
N 0.141012 -0.392426 0.324536
C 1.157601 0.288215 -0.425853
O 0.857006 0.903407 -1.485981
C 2.554413 0.259208 0.046715
C 3.543547 0.868842 -0.604459
H -2.972404 0.985334 -0.017982
H -1.383574 1.793251 -0.254193
H -1.830509 1.157385 1.374754
H -1.345240 -0.534485 -1.172686
H -3.087244 -1.534377 0.274683
H -2.002635 -1.400399 1.715795
H -1.564199 -2.493032 0.345007
H 0.429005 -0.936473 1.170149
H 2.786503 -0.277267 0.958391
H 3.365124 1.418771 -1.519852
H 4.553508 0.820050 -0.218535
