24

C 2.526871 -0.431437 -0.073451
C 1.807830 0.880395 0.299785
C 0.300274 0.685658 0.640472
C -0.547226 0.159229 -0.550158
C -2.009140 0.010116 -0.179033
O -2.687331 1.003632 0.042337
C -2.631962 -1.357667 -0.107510
O -3.961265 -1.273811 0.328389
O -0.399620 0.959536 -1.698091
O -0.242874 1.877146 1.158670
O 2.466568 1.485437 1.385244
O 2.257492 -0.774986 -1.404688
H 3.624998 -0.289133 0.042025
H 2.209850 -1.252489 0.608390
H 1.894264 1.578770 -0.561306
H 0.234070 -0.075534 1.449423
H -0.171158 -0.853372 -0.806241
H -2.045570 -1.983672 0.601058
H -2.596769 -1.821964 -1.117761
H -4.302931 -2.205383 0.348980
H -0.802261 1.846601 -1.511262
H -0.050611 2.606857 0.514379
H 2.404488 0.862937 2.157025
H 2.722015 -1.636867 -1.566678
