      -----------------------------------------------------------      
     |                   =====================                   |     
     |                           x T B                           |     
     |                   =====================                   |     
     |                         S. Grimme                         |     
     |          Mulliken Center for Theoretical Chemistry        |     
     |                    University of Bonn                     |     
      -----------------------------------------------------------      

   * xtb version 6.7.1pre (5071a88) compiled by 'Marcel@Raven' on 2024-07-23

   xtb is free software: you can redistribute it and/or modify it under
   the terms of the GNU Lesser General Public License as published by
   the Free Software Foundation, either version 3 of the License, or
   (at your option) any later version.
   
   xtb is distributed in the hope that it will be useful,
   but WITHOUT ANY WARRANTY; without even the implied warranty of
   MERCHANTABILITY or FITNESS FOR A PARTICULAR PURPOSE.  See the
   GNU Lesser General Public License for more details.
   
   Cite this work as:
   * C. Bannwarth, E. Caldeweyher, S. Ehlert, A. Hansen, P. Pracht,
     J. Seibert, S. Spicher, S. Grimme, WIREs Comput. Mol. Sci., 2020, 11,
     e01493. DOI: 10.1002/wcms.1493
   
   for GFN2-xTB:
   * C. Bannwarth, S. Ehlert and S. Grimme., J. Chem. Theory Comput., 2019,
     15, 1652-1671. DOI: 10.1021/acs.jctc.8b01176
   for GFN1-xTB:
   * S. Grimme, C. Bannwarth, P. Shushkov, J. Chem. Theory Comput., 2017,
     13, 1989-2009. DOI: 10.1021/acs.jctc.7b00118
   for GFN0-xTB:
   * P. Pracht, E. Caldeweyher, S. Ehlert, S. Grimme, ChemRxiv, 2019, preprint.
     DOI: 10.26434/chemrxiv.8326202.v1
   for GFN-FF:
   * S. Spicher and S. Grimme, Angew. Chem. Int. Ed., 2020, 59, 15665-15673.
     DOI: 10.1002/anie.202004239
   
   for ALPB and GBSA implicit solvation:
   * S. Ehlert, M. Stahn, S. Spicher, S. Grimme, J. Chem. Theory Comput.,
     2021, 17, 4250-4261. DOI: 10.1021/acs.jctc.1c00471
   
   for ddCOSMO and CPCM-X implicit solvation:
   * M. Stahn, S. Ehlert, S. Grimme, J. Phys. Chem. A,
     2023, XX, XXXX-XXXX. DOI: 10.1021/acs.jpca.3c04382
   
   for DFT-D4:
   * E. Caldeweyher, C. Bannwarth and S. Grimme, J. Chem. Phys., 2017,
     147, 034112. DOI: 10.1063/1.4993215
   * E. Caldeweyher, S. Ehlert, A. Hansen, H. Neugebauer, S. Spicher,
     C. Bannwarth and S. Grimme, J. Chem. Phys., 2019, 150, 154122.
     DOI: 10.1063/1.5090222
   * E. Caldeweyher, J.-M. Mewes, S. Ehlert and S. Grimme, Phys. Chem. Chem. Phys.
     2020, 22, 8499-8512. DOI: 10.1039/D0CP00502A
   
   for sTDA-xTB:
   * S. Grimme and C. Bannwarth, J. Chem. Phys., 2016, 145, 054103.
     DOI: 10.1063/1.4959605
   
   in the mass-spec context:
   * V. Asgeirsson, C. Bauer and S. Grimme, Chem. Sci., 2017, 8, 4879.
     DOI: 10.1039/c7sc00601b
   * J. Koopman and S. Grimme, ACS Omega 2019, 4, 12, 15120-15133.
     DOI: 10.1021/acsomega.9b02011
   
   for metadynamics refer to:
   * S. Grimme, J. Chem. Theory Comput., 2019, 155, 2847-2862
     DOI: 10.1021/acs.jctc.9b00143
   
   for SPH calculations refer to:
   * S. Spicher and S. Grimme, J. Chem. Theory Comput., 2021, 17, 1701-1714
     DOI: 10.1021/acs.jctc.0c01306
   
   for ONIOM refer to:
   * C. Plett, A. Katbashev, S. Ehlert, S. Grimme, M. Bursch,
     Phys. Chem. Chem. Phys., 2023, 25, 17860-17868. DOI: 10.1039/D3CP02178E
   
   for DIPRO refer to:
   * J. Kohn, N. Gildemeister, S. Grimme, D. Fazzi, A. Hansen,
     J. Chem. Phys., 2023, just accepted.
   
   for PTB refer to:
   * S. Grimme, M. Mueller, A. Hansen, J. Chem. Phys., 2023, 158, 124111.
     DOI: 10.1063/5.0137838
   
   with help from (in alphabetical order)
   P. Atkinson, C. Bannwarth, F. Bohle, G. Brandenburg, E. Caldeweyher
   M. Checinski, S. Dohm, S. Ehlert, S. Ehrlich, I. Gerasimov, C. Hölzer
   A. Katbashev, J. Kohn, J. Koopman, C. Lavigne, S. Lehtola, F. März, M. Müller,
   F. Musil, H. Neugebauer, J. Pisarek, C. Plett, P. Pracht, F. Pultar,
   J. Seibert, P. Shushkov, S. Spicher, M. Stahn, M. Steiner, T. Strunk,
   J. Stückrath, T. Rose, and J. Unsleber
   
 * started run on 2025/06/25 at 12:06:40.283     
$$$$$$$$$$$$$$$$$$$$$$$$$$$$$$$$$$$$$$$$$$$$$$$$$$$$$$$$$$$$$$$$$$$$$$$$
 CONSTRAINTS & SCANS: DEBUG SECTION
$$$$$$$$$$$$$$$$$$$$$$$$$$$$$$$$$$$$$$$$$$$$$$$$$$$$$$$$$$$$$$$$$$$$$$$$
   ID    Z sym.   atoms
    1    6 C      1, 2, 6, 7, 9, 10
    2    8 O      3, 5, 8
    3   15 P      4
    4    1 H      11-25
$$$$$$$$$$$$$$$$$$$$$$$$$$$$$$$$$$$$$$$$$$$$$$$$$$$$$$$$$$$$$$$$$$$$$$$$

           -------------------------------------------------
          |                Calculation Setup                |
           -------------------------------------------------

          program call               : C:\Users\nkapa\Downloads\xtb-6.7.1pre-windows-x86_64\xtb-6.7.1\bin\xtb.EXE dft_tmp\mol_226.xyz --gfn2 --parallel 8 --verbose
          coordinate file            : dft_tmp\mol_226.xyz
          xtbhome directory          : C:\Users\nkapa\AppData\Roaming\SPB_Data
          path for xtb               : C:\Users\nkapa\Downloads\xtb-6.7.1pre-windows-x86_64\xtb-6.7.1\share\xtb
          xcontrol input file        : dft_tmp\mol_226.xyz
          omp threads                :                     8


           -------------------------------------------------
          |                 G F N 2 - x T B                 |
           -------------------------------------------------

        Reference                      10.1021/acs.jctc.8b01176
      * Hamiltonian:
        H0-scaling (s, p, d)           1.850000    2.230000    2.230000
        zeta-weighting                 0.500000
      * Dispersion:
        s8                             2.700000
        a1                             0.520000
        a2                             5.000000
        s9                             5.000000
      * Repulsion:
        kExp                           1.500000    1.000000
        rExp                           1.000000
      * Coulomb:
        alpha                          2.000000
        third order                    shell-resolved
        anisotropic                    true
        a3                             3.000000
        a5                             4.000000
        cn-shift                       1.200000
        cn-exp                         4.000000
        max-rad                        5.000000


          ...................................................
          :                      SETUP                      :
          :.................................................:
          :  # basis functions                  61          :
          :  # atomic orbitals                  60          :
          :  # shells                           36          :
          :  # electrons                        62          :
          :  max. iterations                   250          :
          :  Hamiltonian                  GFN2-xTB          :
          :  restarted?                      false          :
          :  GBSA solvation                  false          :
          :  PC potential                    false          :
          :  electronic temp.          300.0000000     K    :
          :  accuracy                    1.0000000          :
          :  -> integral cutoff          0.2500000E+02      :
          :  -> integral neglect         0.1000000E-07      :
          :  -> SCF convergence          0.1000000E-05 Eh   :
          :  -> wf. convergence          0.1000000E-03 e    :
          :  Broyden damping             0.4000000          :
          :  net charge                          0          :
          :  unpaired electrons                  0          :
          ...................................................

 iter      E             dE          RMSdq      gap      omega  full diag
   1    -35.4711433 -0.354711E+02  0.591E+00    6.56       0.0  T
   2    -35.5566953 -0.855520E-01  0.318E+00    6.30       1.0  T
   3    -35.5617147 -0.501939E-02  0.753E-01    5.82       1.0  T
   4    -35.5628947 -0.117997E-02  0.299E-01    5.86       1.0  T
   5    -35.5629917 -0.969891E-04  0.123E-01    5.89       1.0  T
   6    -35.5630109 -0.191694E-04  0.449E-02    5.90       1.0  T
   7    -35.5630127 -0.183672E-05  0.118E-02    5.90       1.7  T
   8    -35.5630129 -0.211036E-06  0.186E-03    5.90      10.7  T
   9    -35.5630129 -0.983045E-08  0.782E-04    5.90      25.6  T
  10    -35.5630129 -0.105137E-08  0.186E-04    5.90     107.7  T

   *** convergence criteria satisfied after 10 iterations ***

         #    Occupation            Energy/Eh            Energy/eV
      -------------------------------------------------------------
         1        2.0000           -0.7062515             -19.2181
       ...           ...                  ...                  ...
        25        2.0000           -0.4629903             -12.5986
        26        2.0000           -0.4482688             -12.1980
        27        2.0000           -0.4480603             -12.1923
        28        2.0000           -0.4283726             -11.6566
        29        2.0000           -0.4231188             -11.5136
        30        2.0000           -0.4128821             -11.2351
        31        2.0000           -0.4085434             -11.1170 (HOMO)
        32                         -0.1918162              -5.2196 (LUMO)
        33                         -0.1903035              -5.1784
        34                         -0.0598048              -1.6274
        35                          0.0468023               1.2736
        36                          0.0651844               1.7738
       ...                                ...                  ...
        60                          0.7157318              19.4761
      -------------------------------------------------------------
                  HL-Gap            0.2167273 Eh            5.8974 eV
             Fermi-level           -0.3001798 Eh           -8.1683 eV

 SCC (total)                   0 d,  0 h,  0 min,  0.009 sec
 SCC setup                      ...        0 min,  0.000 sec (  0.000%)
 Dispersion                     ...        0 min,  0.000 sec (  0.000%)
 classical contributions        ...        0 min,  0.000 sec (  0.000%)
 integral evaluation            ...        0 min,  0.001 sec ( 11.110%)
 iterations                     ...        0 min,  0.007 sec ( 77.777%)
 molecular gradient             ...        0 min,  0.001 sec ( 11.113%)
 printout                       ...        0 min,  0.000 sec (  0.000%)

         :::::::::::::::::::::::::::::::::::::::::::::::::::::
         ::                     SUMMARY                     ::
         :::::::::::::::::::::::::::::::::::::::::::::::::::::
         :: total energy             -35.275106353817 Eh    ::
         :: gradient norm              0.145951029051 Eh/a0 ::
         :: HOMO-LUMO gap              5.897449109919 eV    ::
         ::.................................................::
         :: HOMO orbital eigv.       -11.117032825630 eV    ::
         :: LUMO orbital eigv.        -5.219583715711 eV    ::
         ::.................................................::
         :: SCC energy               -35.562975073413 Eh    ::
         :: -> isotropic ES            0.063805816801 Eh    ::
         :: -> anisotropic ES          0.005944177287 Eh    ::
         :: -> anisotropic XC          0.012275914000 Eh    ::
         :: -> dispersion             -0.016731679799 Eh    ::
         :: repulsion energy           0.287868719597 Eh    ::
         :: add. restraining           0.000000000000 Eh    ::
         :: total charge              -0.000000000000 e     ::
         ::.................................................::
         :: atomisation energy         6.106565298609 Eh    ::
         :::::::::::::::::::::::::::::::::::::::::::::::::::::

           -------------------------------------------------
          |                Property Printout                |
           -------------------------------------------------

    * Orbital Energies and Occupations

         #    Occupation            Energy/Eh            Energy/eV
      -------------------------------------------------------------
         1        2.0000           -0.7062515             -19.2181
       ...           ...                  ...                  ...
        19        2.0000           -0.4840615             -13.1720
        20        2.0000           -0.4756716             -12.9437
        21        2.0000           -0.4741866             -12.9033
        22        2.0000           -0.4648048             -12.6480
        23        2.0000           -0.4640759             -12.6281
        24        2.0000           -0.4638221             -12.6212
        25        2.0000           -0.4629903             -12.5986
        26        2.0000           -0.4482688             -12.1980
        27        2.0000           -0.4480603             -12.1923
        28        2.0000           -0.4283726             -11.6566
        29        2.0000           -0.4231188             -11.5136
        30        2.0000           -0.4128821             -11.2351
        31        2.0000           -0.4085434             -11.1170 (HOMO)
        32                         -0.1918162              -5.2196 (LUMO)
        33                         -0.1903035              -5.1784
        34                         -0.0598048              -1.6274
        35                          0.0468023               1.2736
        36                          0.0651844               1.7738
        37                          0.0764169               2.0794
        38                          0.0920248               2.5041
        39                          0.0982331               2.6731
        40                          0.1080390               2.9399
        41                          0.1098549               2.9893
        42                          0.1215239               3.3068
       ...                                ...                  ...
        60                          0.7157318              19.4761
      -------------------------------------------------------------
                  HL-Gap            0.2167273 Eh            5.8974 eV
             Fermi-level           -0.3001798 Eh           -8.1683 eV

     #   Z          covCN         q      C6AA      α(0)
     1   6 C        3.741    -0.108    22.641     6.789
     2   6 C        4.013     0.095    18.940     6.182
     3   8 O        1.655    -0.284    18.731     5.842
     4  15 P        3.452     0.322   146.715    21.758
     5   8 O        1.655    -0.284    18.725     5.841
     6   6 C        4.014     0.095    18.942     6.183
     7   6 C        3.741    -0.108    22.643     6.789
     8   8 O        1.655    -0.298    18.973     5.880
     9   6 C        4.015     0.095    18.935     6.182
    10   6 C        3.741    -0.107    22.635     6.788
    11   1 H        0.921     0.058     2.225     2.333
    12   1 H        0.921     0.055     2.260     2.351
    13   1 H        0.921     0.042     2.426     2.436
    14   1 H        0.921     0.021     2.720     2.579
    15   1 H        0.921     0.022     2.710     2.575
    16   1 H        0.921     0.021     2.714     2.577
    17   1 H        0.921     0.021     2.715     2.577
    18   1 H        0.922     0.056     2.252     2.347
    19   1 H        0.922     0.042     2.425     2.435
    20   1 H        0.922     0.057     2.230     2.335
    21   1 H        0.921     0.018     2.766     2.601
    22   1 H        0.921     0.018     2.772     2.604
    23   1 H        0.922     0.041     2.434     2.440
    24   1 H        0.922     0.055     2.260     2.351
    25   1 H        0.922     0.055     2.259     2.351

 Mol. C6AA /au·bohr⁶  :       5725.939347
 Mol. C8AA /au·bohr⁸  :     140948.504812
 Mol. α(0) /au        :        115.125834


Wiberg/Mayer (AO) data.
largest (>0.10) Wiberg bond orders for each atom

 ---------------------------------------------------------------------------
     #   Z sym  total        # sym  WBO       # sym  WBO       # sym  WBO
 ---------------------------------------------------------------------------
     1   6 C    3.992 --     2 C    1.012    12 H    0.985    11 H    0.985
                            13 H    0.985
     2   6 C    3.952 --     1 C    1.012     3 O    0.971    14 H    0.969
                            15 H    0.967
     3   8 O    2.280 --     4 P    1.196     2 C    0.971
     4  15 P    3.713 --     5 O    1.196     3 O    1.196     8 O    1.176
     5   8 O    2.280 --     4 P    1.196     6 C    0.971
     6   6 C    3.952 --     7 C    1.012     5 O    0.971    16 H    0.969
                            17 H    0.967
     7   6 C    3.992 --     6 C    1.012    20 H    0.985    18 H    0.985
                            19 H    0.985
     8   8 O    2.271 --     4 P    1.176     9 C    0.972
     9   6 C    3.954 --    10 C    1.013     8 O    0.972    21 H    0.969
                            22 H    0.969
    10   6 C    3.993 --     9 C    1.013    24 H    0.985    25 H    0.985
                            23 H    0.985
    11   1 H    0.997 --     1 C    0.985
    12   1 H    0.997 --     1 C    0.985
    13   1 H    0.998 --     1 C    0.985
    14   1 H    1.000 --     2 C    0.969
    15   1 H    1.000 --     2 C    0.967
    16   1 H    1.000 --     6 C    0.969
    17   1 H    1.000 --     6 C    0.967
    18   1 H    0.997 --     7 C    0.985
    19   1 H    0.998 --     7 C    0.985
    20   1 H    0.997 --     7 C    0.985
    21   1 H    1.000 --     9 C    0.969
    22   1 H    1.000 --     9 C    0.969
    23   1 H    0.998 --    10 C    0.985
    24   1 H    0.997 --    10 C    0.985
    25   1 H    0.997 --    10 C    0.985
 ---------------------------------------------------------------------------

Topologies differ in total number of bonds
Writing topology from bond orders to xtbtopo.mol

molecular dipole:
                 x           y           z       tot (Debye)
 q only:       -0.772      -0.531       0.676
   full:       -0.905      -0.633       0.731       3.367
molecular quadrupole (traceless):
                xx          xy          yy          xz          yz          zz
 q only:        0.320      -4.814       3.212       2.225       0.637      -3.532
  q+dip:       -0.655      -4.598       2.043       2.113       0.948      -1.387
   full:        0.015      -5.170       3.170       2.678       1.028      -3.184


           -------------------------------------------------
          | TOTAL ENERGY              -35.275106353817 Eh   |
          | GRADIENT NORM               0.145951029051 Eh/α |
          | HOMO-LUMO GAP               5.897449109919 eV   |
           -------------------------------------------------
########################################################################
[WARNING] Runtime exception occurred
-2- restart_readRestart: Dimension missmatch in restart file.
-1- restart_readRestart: Number of electron missmatch in restart file.
########################################################################

------------------------------------------------------------------------
 unit  open   action     filename
  129 false : read       dft_tmp\mol_226.xyz
  129 false : read       dft_tmp\mol_226.xyz
  129 false : read       dft_tmp\mol_226.xyz
  129 false : read       C:\Users\nkapa\Downloads\xtb-6.7.1pre-windows-x86_64\xtb-6.7.1\share\xtb\param_gfn2-xtb.txt
  129 false : read       xtbrestart
  129 false : replaced   charges
  129 false : replaced   wbo
  129 false : replaced   xtbtopo.mol
  129 false : replaced   xtbrestart

------------------------------------------------------------------------
 * finished run on 2025/06/25 at 12:06:40.322     
------------------------------------------------------------------------
 total:
 * wall-time:     0 d,  0 h,  0 min,  0.038 sec
 *  cpu-time:     0 d,  0 h,  0 min,  0.234 sec
 * ratio c/w:     6.168 speedup
 SCF:
 * wall-time:     0 d,  0 h,  0 min,  0.009 sec
 *  cpu-time:     0 d,  0 h,  0 min,  0.109 sec
 * ratio c/w:    12.153 speedup

normal termination of xtb
