      -----------------------------------------------------------      
     |                   =====================                   |     
     |                           x T B                           |     
     |                   =====================                   |     
     |                         S. Grimme                         |     
     |          Mulliken Center for Theoretical Chemistry        |     
     |                    University of Bonn                     |     
      -----------------------------------------------------------      

   * xtb version 6.7.1pre (5071a88) compiled by 'Marcel@Raven' on 2024-07-23

   xtb is free software: you can redistribute it and/or modify it under
   the terms of the GNU Lesser General Public License as published by
   the Free Software Foundation, either version 3 of the License, or
   (at your option) any later version.
   
   xtb is distributed in the hope that it will be useful,
   but WITHOUT ANY WARRANTY; without even the implied warranty of
   MERCHANTABILITY or FITNESS FOR A PARTICULAR PURPOSE.  See the
   GNU Lesser General Public License for more details.
   
   Cite this work as:
   * C. Bannwarth, E. Caldeweyher, S. Ehlert, A. Hansen, P. Pracht,
     J. Seibert, S. Spicher, S. Grimme, WIREs Comput. Mol. Sci., 2020, 11,
     e01493. DOI: 10.1002/wcms.1493
   
   for GFN2-xTB:
   * C. Bannwarth, S. Ehlert and S. Grimme., J. Chem. Theory Comput., 2019,
     15, 1652-1671. DOI: 10.1021/acs.jctc.8b01176
   for GFN1-xTB:
   * S. Grimme, C. Bannwarth, P. Shushkov, J. Chem. Theory Comput., 2017,
     13, 1989-2009. DOI: 10.1021/acs.jctc.7b00118
   for GFN0-xTB:
   * P. Pracht, E. Caldeweyher, S. Ehlert, S. Grimme, ChemRxiv, 2019, preprint.
     DOI: 10.26434/chemrxiv.8326202.v1
   for GFN-FF:
   * S. Spicher and S. Grimme, Angew. Chem. Int. Ed., 2020, 59, 15665-15673.
     DOI: 10.1002/anie.202004239
   
   for ALPB and GBSA implicit solvation:
   * S. Ehlert, M. Stahn, S. Spicher, S. Grimme, J. Chem. Theory Comput.,
     2021, 17, 4250-4261. DOI: 10.1021/acs.jctc.1c00471
   
   for ddCOSMO and CPCM-X implicit solvation:
   * M. Stahn, S. Ehlert, S. Grimme, J. Phys. Chem. A,
     2023, XX, XXXX-XXXX. DOI: 10.1021/acs.jpca.3c04382
   
   for DFT-D4:
   * E. Caldeweyher, C. Bannwarth and S. Grimme, J. Chem. Phys., 2017,
     147, 034112. DOI: 10.1063/1.4993215
   * E. Caldeweyher, S. Ehlert, A. Hansen, H. Neugebauer, S. Spicher,
     C. Bannwarth and S. Grimme, J. Chem. Phys., 2019, 150, 154122.
     DOI: 10.1063/1.5090222
   * E. Caldeweyher, J.-M. Mewes, S. Ehlert and S. Grimme, Phys. Chem. Chem. Phys.
     2020, 22, 8499-8512. DOI: 10.1039/D0CP00502A
   
   for sTDA-xTB:
   * S. Grimme and C. Bannwarth, J. Chem. Phys., 2016, 145, 054103.
     DOI: 10.1063/1.4959605
   
   in the mass-spec context:
   * V. Asgeirsson, C. Bauer and S. Grimme, Chem. Sci., 2017, 8, 4879.
     DOI: 10.1039/c7sc00601b
   * J. Koopman and S. Grimme, ACS Omega 2019, 4, 12, 15120-15133.
     DOI: 10.1021/acsomega.9b02011
   
   for metadynamics refer to:
   * S. Grimme, J. Chem. Theory Comput., 2019, 155, 2847-2862
     DOI: 10.1021/acs.jctc.9b00143
   
   for SPH calculations refer to:
   * S. Spicher and S. Grimme, J. Chem. Theory Comput., 2021, 17, 1701-1714
     DOI: 10.1021/acs.jctc.0c01306
   
   for ONIOM refer to:
   * C. Plett, A. Katbashev, S. Ehlert, S. Grimme, M. Bursch,
     Phys. Chem. Chem. Phys., 2023, 25, 17860-17868. DOI: 10.1039/D3CP02178E
   
   for DIPRO refer to:
   * J. Kohn, N. Gildemeister, S. Grimme, D. Fazzi, A. Hansen,
     J. Chem. Phys., 2023, just accepted.
   
   for PTB refer to:
   * S. Grimme, M. Mueller, A. Hansen, J. Chem. Phys., 2023, 158, 124111.
     DOI: 10.1063/5.0137838
   
   with help from (in alphabetical order)
   P. Atkinson, C. Bannwarth, F. Bohle, G. Brandenburg, E. Caldeweyher
   M. Checinski, S. Dohm, S. Ehlert, S. Ehrlich, I. Gerasimov, C. Hölzer
   A. Katbashev, J. Kohn, J. Koopman, C. Lavigne, S. Lehtola, F. März, M. Müller,
   F. Musil, H. Neugebauer, J. Pisarek, C. Plett, P. Pracht, F. Pultar,
   J. Seibert, P. Shushkov, S. Spicher, M. Stahn, M. Steiner, T. Strunk,
   J. Stückrath, T. Rose, and J. Unsleber
   
 * started run on 2025/06/25 at 12:07:03.194     
$$$$$$$$$$$$$$$$$$$$$$$$$$$$$$$$$$$$$$$$$$$$$$$$$$$$$$$$$$$$$$$$$$$$$$$$
 CONSTRAINTS & SCANS: DEBUG SECTION
$$$$$$$$$$$$$$$$$$$$$$$$$$$$$$$$$$$$$$$$$$$$$$$$$$$$$$$$$$$$$$$$$$$$$$$$
   ID    Z sym.   atoms
    1    6 C      1, 2, 4-6, 8
    2    8 O      3, 7, 9
    3    1 H      10-17
$$$$$$$$$$$$$$$$$$$$$$$$$$$$$$$$$$$$$$$$$$$$$$$$$$$$$$$$$$$$$$$$$$$$$$$$

           -------------------------------------------------
          |                Calculation Setup                |
           -------------------------------------------------

          program call               : C:\Users\nkapa\Downloads\xtb-6.7.1pre-windows-x86_64\xtb-6.7.1\bin\xtb.EXE dft_tmp\mol_407.xyz --gfn2 --parallel 8 --verbose
          coordinate file            : dft_tmp\mol_407.xyz
          xtbhome directory          : C:\Users\nkapa\AppData\Roaming\SPB_Data
          path for xtb               : C:\Users\nkapa\Downloads\xtb-6.7.1pre-windows-x86_64\xtb-6.7.1\share\xtb
          xcontrol input file        : dft_tmp\mol_407.xyz
          omp threads                :                     8


           -------------------------------------------------
          |                 G F N 2 - x T B                 |
           -------------------------------------------------

        Reference                      10.1021/acs.jctc.8b01176
      * Hamiltonian:
        H0-scaling (s, p, d)           1.850000    2.230000    2.230000
        zeta-weighting                 0.500000
      * Dispersion:
        s8                             2.700000
        a1                             0.520000
        a2                             5.000000
        s9                             5.000000
      * Repulsion:
        kExp                           1.500000    1.000000
        rExp                           1.000000
      * Coulomb:
        alpha                          2.000000
        third order                    shell-resolved
        anisotropic                    true
        a3                             3.000000
        a5                             4.000000
        cn-shift                       1.200000
        cn-exp                         4.000000
        max-rad                        5.000000


          ...................................................
          :                      SETUP                      :
          :.................................................:
          :  # basis functions                  44          :
          :  # atomic orbitals                  44          :
          :  # shells                           26          :
          :  # electrons                        50          :
          :  max. iterations                   250          :
          :  Hamiltonian                  GFN2-xTB          :
          :  restarted?                      false          :
          :  GBSA solvation                  false          :
          :  PC potential                    false          :
          :  electronic temp.          300.0000000     K    :
          :  accuracy                    1.0000000          :
          :  -> integral cutoff          0.2500000E+02      :
          :  -> integral neglect         0.1000000E-07      :
          :  -> SCF convergence          0.1000000E-05 Eh   :
          :  -> wf. convergence          0.1000000E-03 e    :
          :  Broyden damping             0.4000000          :
          :  net charge                          0          :
          :  unpaired electrons                  0          :
          ...................................................

 iter      E             dE          RMSdq      gap      omega  full diag
   1    -29.3641859 -0.293642E+02  0.429E+00    4.81       0.0  T
   2    -29.3861663 -0.219804E-01  0.269E+00    4.65       1.0  T
   3    -29.3778252  0.834111E-02  0.105E+00    4.68       1.0  T
   4    -29.3907093 -0.128841E-01  0.303E-01    4.60       1.0  T
   5    -29.3913724 -0.663131E-03  0.852E-02    4.61       1.0  T
   6    -29.3913869 -0.145404E-04  0.356E-02    4.61       1.0  T
   7    -29.3913876 -0.690786E-06  0.824E-03    4.61       2.9  T
   8    -29.3913880 -0.342765E-06  0.433E-03    4.61       5.6  T
   9    -29.3913880 -0.877982E-07  0.169E-03    4.61      14.4  T
  10    -29.3913881 -0.850594E-08  0.576E-04    4.61      42.1  T
  11    -29.3913881 -0.149323E-08  0.138E-04    4.61     175.8  T

   *** convergence criteria satisfied after 11 iterations ***

         #    Occupation            Energy/Eh            Energy/eV
      -------------------------------------------------------------
         1        2.0000           -0.7505468             -20.4234
       ...           ...                  ...                  ...
        19        2.0000           -0.4694616             -12.7747
        20        2.0000           -0.4597100             -12.5093
        21        2.0000           -0.4491753             -12.2227
        22        2.0000           -0.4250044             -11.5650
        23        2.0000           -0.4207531             -11.4493
        24        2.0000           -0.4173754             -11.3574
        25        2.0000           -0.3807725             -10.3613 (HOMO)
        26                         -0.2114055              -5.7526 (LUMO)
        27                         -0.1573549              -4.2818
        28                          0.0467725               1.2727
        29                          0.0567627               1.5446
        30                          0.0646093               1.7581
       ...                                ...                  ...
        44                          0.6895560              18.7638
      -------------------------------------------------------------
                  HL-Gap            0.1693670 Eh            4.6087 eV
             Fermi-level           -0.2960890 Eh           -8.0570 eV

 SCC (total)                   0 d,  0 h,  0 min,  0.006 sec
 SCC setup                      ...        0 min,  0.000 sec (  0.000%)
 Dispersion                     ...        0 min,  0.001 sec ( 16.665%)
 classical contributions        ...        0 min,  0.000 sec (  0.000%)
 integral evaluation            ...        0 min,  0.000 sec (  0.000%)
 iterations                     ...        0 min,  0.004 sec ( 66.665%)
 molecular gradient             ...        0 min,  0.001 sec ( 16.669%)
 printout                       ...        0 min,  0.000 sec (  0.000%)

         :::::::::::::::::::::::::::::::::::::::::::::::::::::
         ::                     SUMMARY                     ::
         :::::::::::::::::::::::::::::::::::::::::::::::::::::
         :: total energy             -29.085370923699 Eh    ::
         :: gradient norm              0.095424886841 Eh/a0 ::
         :: HOMO-LUMO gap              4.608710814494 eV    ::
         ::.................................................::
         :: HOMO orbital eigv.       -10.361346266025 eV    ::
         :: LUMO orbital eigv.        -5.752635451531 eV    ::
         ::.................................................::
         :: SCC energy               -29.391376033577 Eh    ::
         :: -> isotropic ES            0.054179281026 Eh    ::
         :: -> anisotropic ES          0.004653311974 Eh    ::
         :: -> anisotropic XC          0.000480830617 Eh    ::
         :: -> dispersion             -0.011427613019 Eh    ::
         :: repulsion energy           0.306005109878 Eh    ::
         :: add. restraining           0.000000000000 Eh    ::
         :: total charge               0.000000000000 e     ::
         ::.................................................::
         :: atomisation energy         4.902853613725 Eh    ::
         :::::::::::::::::::::::::::::::::::::::::::::::::::::

           -------------------------------------------------
          |                Property Printout                |
           -------------------------------------------------

    * Orbital Energies and Occupations

         #    Occupation            Energy/Eh            Energy/eV
      -------------------------------------------------------------
         1        2.0000           -0.7505468             -20.4234
       ...           ...                  ...                  ...
        13        2.0000           -0.5533903             -15.0585
        14        2.0000           -0.5332441             -14.5103
        15        2.0000           -0.5292698             -14.4022
        16        2.0000           -0.5228877             -14.2285
        17        2.0000           -0.4867963             -13.2464
        18        2.0000           -0.4771600             -12.9842
        19        2.0000           -0.4694616             -12.7747
        20        2.0000           -0.4597100             -12.5093
        21        2.0000           -0.4491753             -12.2227
        22        2.0000           -0.4250044             -11.5650
        23        2.0000           -0.4207531             -11.4493
        24        2.0000           -0.4173754             -11.3574
        25        2.0000           -0.3807725             -10.3613 (HOMO)
        26                         -0.2114055              -5.7526 (LUMO)
        27                         -0.1573549              -4.2818
        28                          0.0467725               1.2727
        29                          0.0567627               1.5446
        30                          0.0646093               1.7581
        31                          0.0979373               2.6650
        32                          0.1142325               3.1084
        33                          0.1233635               3.3569
        34                          0.1378387               3.7508
        35                          0.1489928               4.0543
        36                          0.1694895               4.6120
       ...                                ...                  ...
        44                          0.6895560              18.7638
      -------------------------------------------------------------
                  HL-Gap            0.1693670 Eh            4.6087 eV
             Fermi-level           -0.2960890 Eh           -8.0570 eV

     #   Z          covCN         q      C6AA      α(0)
     1   6 C        3.043    -0.070    29.711     8.940
     2   6 C        3.200     0.100    25.273     8.193
     3   8 O        1.737    -0.156    16.655     5.510
     4   6 C        3.199     0.088    25.522     8.233
     5   6 C        3.042    -0.071    29.718     8.941
     6   6 C        3.672     0.075    19.556     6.338
     7   8 O        1.652    -0.427    21.387     6.243
     8   6 C        3.672     0.083    19.432     6.318
     9   8 O        1.653    -0.430    21.439     6.251
    10   1 H        0.925     0.040     2.455     2.450
    11   1 H        0.925     0.042     2.423     2.434
    12   1 H        0.921     0.029     2.603     2.523
    13   1 H        0.922     0.059     2.216     2.328
    14   1 H        0.801     0.294     0.741     1.352
    15   1 H        0.921     0.027     2.629     2.536
    16   1 H        0.921     0.027     2.629     2.536
    17   1 H        0.801     0.292     0.746     1.357

 Mol. C6AA /au·bohr⁶  :       2935.268707
 Mol. C8AA /au·bohr⁸  :      66780.503452
 Mol. α(0) /au        :         82.482593


Wiberg/Mayer (AO) data.
largest (>0.10) Wiberg bond orders for each atom

 ---------------------------------------------------------------------------
     #   Z sym  total        # sym  WBO       # sym  WBO       # sym  WBO
 ---------------------------------------------------------------------------
     1   6 C    3.983 --     2 C    1.520     5 C    1.361    10 H    0.974
     2   6 C    3.906 --     1 C    1.520     3 O    1.145     8 C    1.004
                             4 C    0.167
     3   8 O    2.482 --     2 C    1.145     4 C    1.144
     4   6 C    3.903 --     5 C    1.518     3 O    1.144     6 C    0.998
                             2 C    0.167
     5   6 C    3.983 --     4 C    1.518     1 C    1.361    11 H    0.974
     6   6 C    3.961 --     4 C    0.998     7 O    0.995    12 H    0.968
                            13 H    0.965
     7   8 O    1.969 --     6 C    0.995    14 H    0.900
     8   6 C    3.964 --     2 C    1.004     9 O    0.993    16 H    0.966
                            15 H    0.965
     9   8 O    1.958 --     8 C    0.993    17 H    0.899
    10   1 H    0.998 --     1 C    0.974
    11   1 H    0.998 --     5 C    0.974
    12   1 H    0.999 --     6 C    0.968
    13   1 H    0.996 --     6 C    0.965
    14   1 H    0.914 --     7 O    0.900
    15   1 H    0.999 --     8 C    0.965
    16   1 H    0.999 --     8 C    0.966
    17   1 H    0.914 --     9 O    0.899
 ---------------------------------------------------------------------------

Topologies differ in total number of bonds
Writing topology from bond orders to xtbtopo.mol

molecular dipole:
                 x           y           z       tot (Debye)
 q only:        0.531       0.521       0.210
   full:        0.817       0.824       0.274       3.030
molecular quadrupole (traceless):
                xx          xy          yy          xz          yz          zz
 q only:        1.826       0.990       1.127       5.015       1.528      -2.954
  q+dip:        1.134       1.354       4.734       8.594       0.848      -5.869
   full:        1.272       1.416       3.174       7.636       1.766      -4.446


           -------------------------------------------------
          | TOTAL ENERGY              -29.085370923699 Eh   |
          | GRADIENT NORM               0.095424886841 Eh/α |
          | HOMO-LUMO GAP               4.608710814494 eV   |
           -------------------------------------------------
########################################################################
[WARNING] Runtime exception occurred
-2- restart_readRestart: Dimension missmatch in restart file.
-1- restart_readRestart: Number of electron missmatch in restart file.
########################################################################

------------------------------------------------------------------------
 unit  open   action     filename
  129 false : read       dft_tmp\mol_407.xyz
  129 false : read       dft_tmp\mol_407.xyz
  129 false : read       dft_tmp\mol_407.xyz
  129 false : read       C:\Users\nkapa\Downloads\xtb-6.7.1pre-windows-x86_64\xtb-6.7.1\share\xtb\param_gfn2-xtb.txt
  129 false : read       xtbrestart
  129 false : replaced   charges
  129 false : replaced   wbo
  129 false : replaced   xtbtopo.mol
  129 false : replaced   xtbrestart

------------------------------------------------------------------------
 * finished run on 2025/06/25 at 12:07:03.232     
------------------------------------------------------------------------
 total:
 * wall-time:     0 d,  0 h,  0 min,  0.036 sec
 *  cpu-time:     0 d,  0 h,  0 min,  0.125 sec
 * ratio c/w:     3.472 speedup
 SCF:
 * wall-time:     0 d,  0 h,  0 min,  0.006 sec
 *  cpu-time:     0 d,  0 h,  0 min,  0.016 sec
 * ratio c/w:     2.604 speedup

normal termination of xtb
