19

C 3.712288 0.396881 0.693625
C 3.228029 -0.679822 0.079086
C 1.818849 -0.782834 -0.326390
O 1.425074 -1.824435 -0.916105
O 0.937780 0.280711 -0.101513
N -0.431186 0.165086 -0.253830
C -1.289335 1.270332 -0.449558
O -0.872283 2.402758 -0.809052
C -2.722291 0.962649 -0.168637
C -2.696985 -0.502125 0.312768
C -1.250345 -0.868231 0.270577
O -0.795328 -1.953607 0.718239
H 3.084717 1.248928 0.922415
H 4.756372 0.432132 0.976349
H 3.893979 -1.508845 -0.127569
H -3.326196 1.067383 -1.095319
H -3.110667 1.635662 0.625620
H -3.277366 -1.157115 -0.371713
H -3.085103 -0.585508 1.350620
