21

C 4.335931 0.549889 0.566950
C 3.487256 0.114001 -0.362450
C 2.111524 -0.310300 -0.043336
O 1.691797 -0.271878 1.146294
N 1.249363 -0.768364 -1.093838
C -0.123517 -1.200164 -0.841840
N -0.958402 -0.056225 -0.480481
C -2.342789 -0.214448 -0.145341
O -2.867677 -1.362147 -0.157476
C -3.146388 0.969156 0.212812
C -4.436550 0.888333 0.533726
H 5.336423 0.850972 0.284633
H 4.051111 0.612847 1.609604
H 3.821672 0.070562 -1.391580
H 1.615240 -0.815945 -2.071659
H -0.533865 -1.674828 -1.759249
H -0.133609 -1.951878 -0.023039
H -0.542258 0.902972 -0.473222
H -2.670680 1.942066 0.215668
H -4.985508 1.785213 0.789836
H -4.959074 -0.059834 0.546176
