      -----------------------------------------------------------      
     |                   =====================                   |     
     |                           x T B                           |     
     |                   =====================                   |     
     |                         S. Grimme                         |     
     |          Mulliken Center for Theoretical Chemistry        |     
     |                    University of Bonn                     |     
      -----------------------------------------------------------      

   * xtb version 6.7.1pre (5071a88) compiled by 'Marcel@Raven' on 2024-07-23

   xtb is free software: you can redistribute it and/or modify it under
   the terms of the GNU Lesser General Public License as published by
   the Free Software Foundation, either version 3 of the License, or
   (at your option) any later version.
   
   xtb is distributed in the hope that it will be useful,
   but WITHOUT ANY WARRANTY; without even the implied warranty of
   MERCHANTABILITY or FITNESS FOR A PARTICULAR PURPOSE.  See the
   GNU Lesser General Public License for more details.
   
   Cite this work as:
   * C. Bannwarth, E. Caldeweyher, S. Ehlert, A. Hansen, P. Pracht,
     J. Seibert, S. Spicher, S. Grimme, WIREs Comput. Mol. Sci., 2020, 11,
     e01493. DOI: 10.1002/wcms.1493
   
   for GFN2-xTB:
   * C. Bannwarth, S. Ehlert and S. Grimme., J. Chem. Theory Comput., 2019,
     15, 1652-1671. DOI: 10.1021/acs.jctc.8b01176
   for GFN1-xTB:
   * S. Grimme, C. Bannwarth, P. Shushkov, J. Chem. Theory Comput., 2017,
     13, 1989-2009. DOI: 10.1021/acs.jctc.7b00118
   for GFN0-xTB:
   * P. Pracht, E. Caldeweyher, S. Ehlert, S. Grimme, ChemRxiv, 2019, preprint.
     DOI: 10.26434/chemrxiv.8326202.v1
   for GFN-FF:
   * S. Spicher and S. Grimme, Angew. Chem. Int. Ed., 2020, 59, 15665-15673.
     DOI: 10.1002/anie.202004239
   
   for ALPB and GBSA implicit solvation:
   * S. Ehlert, M. Stahn, S. Spicher, S. Grimme, J. Chem. Theory Comput.,
     2021, 17, 4250-4261. DOI: 10.1021/acs.jctc.1c00471
   
   for ddCOSMO and CPCM-X implicit solvation:
   * M. Stahn, S. Ehlert, S. Grimme, J. Phys. Chem. A,
     2023, XX, XXXX-XXXX. DOI: 10.1021/acs.jpca.3c04382
   
   for DFT-D4:
   * E. Caldeweyher, C. Bannwarth and S. Grimme, J. Chem. Phys., 2017,
     147, 034112. DOI: 10.1063/1.4993215
   * E. Caldeweyher, S. Ehlert, A. Hansen, H. Neugebauer, S. Spicher,
     C. Bannwarth and S. Grimme, J. Chem. Phys., 2019, 150, 154122.
     DOI: 10.1063/1.5090222
   * E. Caldeweyher, J.-M. Mewes, S. Ehlert and S. Grimme, Phys. Chem. Chem. Phys.
     2020, 22, 8499-8512. DOI: 10.1039/D0CP00502A
   
   for sTDA-xTB:
   * S. Grimme and C. Bannwarth, J. Chem. Phys., 2016, 145, 054103.
     DOI: 10.1063/1.4959605
   
   in the mass-spec context:
   * V. Asgeirsson, C. Bauer and S. Grimme, Chem. Sci., 2017, 8, 4879.
     DOI: 10.1039/c7sc00601b
   * J. Koopman and S. Grimme, ACS Omega 2019, 4, 12, 15120-15133.
     DOI: 10.1021/acsomega.9b02011
   
   for metadynamics refer to:
   * S. Grimme, J. Chem. Theory Comput., 2019, 155, 2847-2862
     DOI: 10.1021/acs.jctc.9b00143
   
   for SPH calculations refer to:
   * S. Spicher and S. Grimme, J. Chem. Theory Comput., 2021, 17, 1701-1714
     DOI: 10.1021/acs.jctc.0c01306
   
   for ONIOM refer to:
   * C. Plett, A. Katbashev, S. Ehlert, S. Grimme, M. Bursch,
     Phys. Chem. Chem. Phys., 2023, 25, 17860-17868. DOI: 10.1039/D3CP02178E
   
   for DIPRO refer to:
   * J. Kohn, N. Gildemeister, S. Grimme, D. Fazzi, A. Hansen,
     J. Chem. Phys., 2023, just accepted.
   
   for PTB refer to:
   * S. Grimme, M. Mueller, A. Hansen, J. Chem. Phys., 2023, 158, 124111.
     DOI: 10.1063/5.0137838
   
   with help from (in alphabetical order)
   P. Atkinson, C. Bannwarth, F. Bohle, G. Brandenburg, E. Caldeweyher
   M. Checinski, S. Dohm, S. Ehlert, S. Ehrlich, I. Gerasimov, C. Hölzer
   A. Katbashev, J. Kohn, J. Koopman, C. Lavigne, S. Lehtola, F. März, M. Müller,
   F. Musil, H. Neugebauer, J. Pisarek, C. Plett, P. Pracht, F. Pultar,
   J. Seibert, P. Shushkov, S. Spicher, M. Stahn, M. Steiner, T. Strunk,
   J. Stückrath, T. Rose, and J. Unsleber
   
 * started run on 2025/06/25 at 12:07:06.868     
$$$$$$$$$$$$$$$$$$$$$$$$$$$$$$$$$$$$$$$$$$$$$$$$$$$$$$$$$$$$$$$$$$$$$$$$
 CONSTRAINTS & SCANS: DEBUG SECTION
$$$$$$$$$$$$$$$$$$$$$$$$$$$$$$$$$$$$$$$$$$$$$$$$$$$$$$$$$$$$$$$$$$$$$$$$
   ID    Z sym.   atoms
    1    6 C      1, 2, 7
    2    8 O      3, 5, 6
    3   16 S      4
    4    1 H      8-13
$$$$$$$$$$$$$$$$$$$$$$$$$$$$$$$$$$$$$$$$$$$$$$$$$$$$$$$$$$$$$$$$$$$$$$$$

           -------------------------------------------------
          |                Calculation Setup                |
           -------------------------------------------------

          program call               : C:\Users\nkapa\Downloads\xtb-6.7.1pre-windows-x86_64\xtb-6.7.1\bin\xtb.EXE dft_tmp\mol_430.xyz --gfn2 --parallel 8 --verbose
          coordinate file            : dft_tmp\mol_430.xyz
          xtbhome directory          : C:\Users\nkapa\AppData\Roaming\SPB_Data
          path for xtb               : C:\Users\nkapa\Downloads\xtb-6.7.1pre-windows-x86_64\xtb-6.7.1\share\xtb
          xcontrol input file        : dft_tmp\mol_430.xyz
          omp threads                :                     8


           -------------------------------------------------
          |                 G F N 2 - x T B                 |
           -------------------------------------------------

        Reference                      10.1021/acs.jctc.8b01176
      * Hamiltonian:
        H0-scaling (s, p, d)           1.850000    2.230000    2.230000
        zeta-weighting                 0.500000
      * Dispersion:
        s8                             2.700000
        a1                             0.520000
        a2                             5.000000
        s9                             5.000000
      * Repulsion:
        kExp                           1.500000    1.000000
        rExp                           1.000000
      * Coulomb:
        alpha                          2.000000
        third order                    shell-resolved
        anisotropic                    true
        a3                             3.000000
        a5                             4.000000
        cn-shift                       1.200000
        cn-exp                         4.000000
        max-rad                        5.000000


          ...................................................
          :                      SETUP                      :
          :.................................................:
          :  # basis functions                  40          :
          :  # atomic orbitals                  39          :
          :  # shells                           21          :
          :  # electrons                        42          :
          :  max. iterations                   250          :
          :  Hamiltonian                  GFN2-xTB          :
          :  restarted?                      false          :
          :  GBSA solvation                  false          :
          :  PC potential                    false          :
          :  electronic temp.          300.0000000     K    :
          :  accuracy                    1.0000000          :
          :  -> integral cutoff          0.2500000E+02      :
          :  -> integral neglect         0.1000000E-07      :
          :  -> SCF convergence          0.1000000E-05 Eh   :
          :  -> wf. convergence          0.1000000E-03 e    :
          :  Broyden damping             0.4000000          :
          :  net charge                          0          :
          :  unpaired electrons                  0          :
          ...................................................

 iter      E             dE          RMSdq      gap      omega  full diag
   1    -25.0236976 -0.250237E+02  0.654E+00    7.16       0.0  T
   2    -25.0693620 -0.456644E-01  0.394E+00    6.48       1.0  T
   3    -25.0714971 -0.213509E-02  0.154E+00    6.66       1.0  T
   4    -25.0759802 -0.448307E-02  0.512E-01    6.50       1.0  T
   5    -25.0762777 -0.297542E-03  0.267E-01    6.53       1.0  T
   6    -25.0764149 -0.137169E-03  0.114E-01    6.53       1.0  T
   7    -25.0764378 -0.229319E-04  0.360E-02    6.53       1.0  T
   8    -25.0764413 -0.352469E-05  0.876E-03    6.53       3.2  T
   9    -25.0764414 -0.910061E-07  0.367E-03    6.53       7.6  T
  10    -25.0764415 -0.137383E-07  0.120E-03    6.53      23.1  T
  11    -25.0764415 -0.198295E-08  0.441E-04    6.53      62.8  T
  12    -25.0764415 -0.249493E-09  0.148E-04    6.53     186.8  T

   *** convergence criteria satisfied after 12 iterations ***

         #    Occupation            Energy/Eh            Energy/eV
      -------------------------------------------------------------
         1        2.0000           -0.7943094             -21.6143
       ...           ...                  ...                  ...
        15        2.0000           -0.5064503             -13.7812
        16        2.0000           -0.4933709             -13.4253
        17        2.0000           -0.4680492             -12.7363
        18        2.0000           -0.4574251             -12.4472
        19        2.0000           -0.4453765             -12.1193
        20        2.0000           -0.4425112             -12.0413
        21        2.0000           -0.4316258             -11.7451 (HOMO)
        22                         -0.1916010              -5.2137 (LUMO)
        23                         -0.1237680              -3.3679
        24                         -0.1051142              -2.8603
        25                         -0.0939400              -2.5562
        26                          0.0116451               0.3169
       ...                                ...                  ...
        39                          0.9722892              26.4573
      -------------------------------------------------------------
                  HL-Gap            0.2400248 Eh            6.5314 eV
             Fermi-level           -0.3116134 Eh           -8.4794 eV

 SCC (total)                   0 d,  0 h,  0 min,  0.005 sec
 SCC setup                      ...        0 min,  0.000 sec (  0.000%)
 Dispersion                     ...        0 min,  0.000 sec (  0.000%)
 classical contributions        ...        0 min,  0.000 sec (  0.000%)
 integral evaluation            ...        0 min,  0.001 sec ( 20.003%)
 iterations                     ...        0 min,  0.003 sec ( 59.999%)
 molecular gradient             ...        0 min,  0.001 sec ( 19.998%)
 printout                       ...        0 min,  0.000 sec (  0.000%)

         :::::::::::::::::::::::::::::::::::::::::::::::::::::
         ::                     SUMMARY                     ::
         :::::::::::::::::::::::::::::::::::::::::::::::::::::
         :: total energy             -24.915210602541 Eh    ::
         :: gradient norm              0.164179280195 Eh/a0 ::
         :: HOMO-LUMO gap              6.531407413840 eV    ::
         ::.................................................::
         :: HOMO orbital eigv.       -11.745135641737 eV    ::
         :: LUMO orbital eigv.        -5.213728227897 eV    ::
         ::.................................................::
         :: SCC energy               -25.076428632700 Eh    ::
         :: -> isotropic ES            0.078784314373 Eh    ::
         :: -> anisotropic ES         -0.004800594546 Eh    ::
         :: -> anisotropic XC          0.003617544701 Eh    ::
         :: -> dispersion             -0.009770645558 Eh    ::
         :: repulsion energy           0.161218030158 Eh    ::
         :: add. restraining           0.000000000000 Eh    ::
         :: total charge               0.000000000000 e     ::
         ::.................................................::
         :: atomisation energy         3.243654490406 Eh    ::
         :::::::::::::::::::::::::::::::::::::::::::::::::::::

           -------------------------------------------------
          |                Property Printout                |
           -------------------------------------------------

    * Orbital Energies and Occupations

         #    Occupation            Energy/Eh            Energy/eV
      -------------------------------------------------------------
         1        2.0000           -0.7943094             -21.6143
       ...           ...                  ...                  ...
         9        2.0000           -0.5885247             -16.0146
        10        2.0000           -0.5646742             -15.3656
        11        2.0000           -0.5550658             -15.1041
        12        2.0000           -0.5329359             -14.5019
        13        2.0000           -0.5257304             -14.3059
        14        2.0000           -0.5203719             -14.1600
        15        2.0000           -0.5064503             -13.7812
        16        2.0000           -0.4933709             -13.4253
        17        2.0000           -0.4680492             -12.7363
        18        2.0000           -0.4574251             -12.4472
        19        2.0000           -0.4453765             -12.1193
        20        2.0000           -0.4425112             -12.0413
        21        2.0000           -0.4316258             -11.7451 (HOMO)
        22                         -0.1916010              -5.2137 (LUMO)
        23                         -0.1237680              -3.3679
        24                         -0.1051142              -2.8603
        25                         -0.0939400              -2.5562
        26                          0.0116451               0.3169
        27                          0.0325240               0.8850
        28                          0.0574321               1.5628
        29                          0.0788646               2.1460
        30                          0.0984511               2.6790
        31                          0.1031055               2.8056
        32                          0.1322905               3.5998
       ...                                ...                  ...
        39                          0.9722892              26.4573
      -------------------------------------------------------------
                  HL-Gap            0.2400248 Eh            6.5314 eV
             Fermi-level           -0.3116134 Eh           -8.4794 eV

     #   Z          covCN         q      C6AA      α(0)
     1   6 C        3.995    -0.086    22.062     6.673
     2   6 C        4.000     0.067    19.385     6.255
     3   8 O        1.705    -0.399    20.819     6.160
     4  16 S        4.074     1.261    99.474    16.786
     5   8 O        0.859    -0.575    25.517     6.773
     6   8 O        0.859    -0.582    25.682     6.795
     7   6 C        3.800    -0.159    23.584     6.914
     8   1 H        0.921     0.070     2.084     2.258
     9   1 H        0.921     0.073     2.050     2.239
    10   1 H        0.921     0.052     2.296     2.370
    11   1 H        0.922     0.078     1.999     2.211
    12   1 H        0.922     0.097     1.815     2.107
    13   1 H        0.922     0.103     1.756     2.072

 Mol. C6AA /au·bohr⁶  :       2197.769111
 Mol. C8AA /au·bohr⁸  :      57206.650937
 Mol. α(0) /au        :         69.613391


Wiberg/Mayer (AO) data.
largest (>0.10) Wiberg bond orders for each atom

 ---------------------------------------------------------------------------
     #   Z sym  total        # sym  WBO       # sym  WBO       # sym  WBO
 ---------------------------------------------------------------------------
     1   6 C    3.989 --     7 C    1.020     2 C    0.990     8 H    0.976
                             9 H    0.972
     2   6 C    3.934 --     1 C    0.990     3 O    0.978    10 H    0.969
                            11 H    0.963
     3   8 O    2.130 --     2 C    0.978     4 S    0.885
     4  16 S    4.769 --     5 O    1.553     6 O    1.541     3 O    0.885
                             7 C    0.743
     5   8 O    1.875 --     4 S    1.553     6 O    0.130
     6   8 O    1.868 --     4 S    1.541     5 O    0.130
     7   6 C    3.975 --     1 C    1.020    12 H    0.968    13 H    0.966
                             4 S    0.743
     8   1 H    0.995 --     1 C    0.976
     9   1 H    0.995 --     1 C    0.972
    10   1 H    0.997 --     2 C    0.969
    11   1 H    0.994 --     2 C    0.963
    12   1 H    0.991 --     7 C    0.968
    13   1 H    0.989 --     7 C    0.966
 ---------------------------------------------------------------------------

Topologies differ in total number of bonds
Writing topology from bond orders to xtbtopo.mol

molecular dipole:
                 x           y           z       tot (Debye)
 q only:       -2.534       0.882      -0.570
   full:       -2.928       0.861      -0.576       7.895
molecular quadrupole (traceless):
                xx          xy          yy          xz          yz          zz
 q only:       -7.755       3.483       5.568      -1.966      -2.787       2.187
  q+dip:      -11.915       3.836       7.316      -2.203      -2.417       4.598
   full:      -10.979       3.732       7.244      -2.080      -3.131       3.735


           -------------------------------------------------
          | TOTAL ENERGY              -24.915210602541 Eh   |
          | GRADIENT NORM               0.164179280195 Eh/α |
          | HOMO-LUMO GAP               6.531407413840 eV   |
           -------------------------------------------------
########################################################################
[WARNING] Runtime exception occurred
-2- restart_readRestart: Dimension missmatch in restart file.
-1- restart_readRestart: Number of electron missmatch in restart file.
########################################################################

------------------------------------------------------------------------
 unit  open   action     filename
  129 false : read       dft_tmp\mol_430.xyz
  129 false : read       dft_tmp\mol_430.xyz
  129 false : read       dft_tmp\mol_430.xyz
  129 false : read       C:\Users\nkapa\Downloads\xtb-6.7.1pre-windows-x86_64\xtb-6.7.1\share\xtb\param_gfn2-xtb.txt
  129 false : read       xtbrestart
  129 false : replaced   charges
  129 false : replaced   wbo
  129 false : replaced   xtbtopo.mol
  129 false : replaced   xtbrestart

------------------------------------------------------------------------
 * finished run on 2025/06/25 at 12:07:06.892     
------------------------------------------------------------------------
 total:
 * wall-time:     0 d,  0 h,  0 min,  0.023 sec
 *  cpu-time:     0 d,  0 h,  0 min,  0.125 sec
 * ratio c/w:     5.435 speedup
 SCF:
 * wall-time:     0 d,  0 h,  0 min,  0.006 sec
 *  cpu-time:     0 d,  0 h,  0 min,  0.000 sec
 * ratio c/w:     0.000 speedup

normal termination of xtb
