26

N 1.155041 1.040204 -0.983371
C 1.969127 0.055447 -0.266297
C 1.155683 -0.606543 0.868225
C 0.204801 -1.721634 0.386567
C -0.956975 -1.238960 -0.495525
N -1.838659 -0.312868 0.218546
C -2.926530 0.354500 -0.435516
N -3.761577 1.244345 0.309618
N -3.153497 0.154268 -1.695940
C 3.210575 0.708445 0.284312
O 4.462068 0.317640 -0.181642
O 3.121165 1.611010 1.160247
H 0.914523 1.832890 -0.343824
H 1.719167 1.432447 -1.772450
H 2.287043 -0.732697 -0.984673
H 0.598628 0.164076 1.442614
H 1.863195 -1.081837 1.583960
H 0.789262 -2.482356 -0.175263
H -0.219202 -2.233826 1.277800
H -1.550604 -2.123802 -0.811251
H -0.565454 -0.761796 -1.416900
H -1.703641 -0.146671 1.241246
H -4.559211 1.740392 -0.146885
H -3.582916 1.411485 1.324500
H -3.938918 0.628442 -2.195012
H 5.306907 0.747400 0.175758
