      -----------------------------------------------------------      
     |                   =====================                   |     
     |                           x T B                           |     
     |                   =====================                   |     
     |                         S. Grimme                         |     
     |          Mulliken Center for Theoretical Chemistry        |     
     |                    University of Bonn                     |     
      -----------------------------------------------------------      

   * xtb version 6.7.1pre (5071a88) compiled by 'Marcel@Raven' on 2024-07-23

   xtb is free software: you can redistribute it and/or modify it under
   the terms of the GNU Lesser General Public License as published by
   the Free Software Foundation, either version 3 of the License, or
   (at your option) any later version.
   
   xtb is distributed in the hope that it will be useful,
   but WITHOUT ANY WARRANTY; without even the implied warranty of
   MERCHANTABILITY or FITNESS FOR A PARTICULAR PURPOSE.  See the
   GNU Lesser General Public License for more details.
   
   Cite this work as:
   * C. Bannwarth, E. Caldeweyher, S. Ehlert, A. Hansen, P. Pracht,
     J. Seibert, S. Spicher, S. Grimme, WIREs Comput. Mol. Sci., 2020, 11,
     e01493. DOI: 10.1002/wcms.1493
   
   for GFN2-xTB:
   * C. Bannwarth, S. Ehlert and S. Grimme., J. Chem. Theory Comput., 2019,
     15, 1652-1671. DOI: 10.1021/acs.jctc.8b01176
   for GFN1-xTB:
   * S. Grimme, C. Bannwarth, P. Shushkov, J. Chem. Theory Comput., 2017,
     13, 1989-2009. DOI: 10.1021/acs.jctc.7b00118
   for GFN0-xTB:
   * P. Pracht, E. Caldeweyher, S. Ehlert, S. Grimme, ChemRxiv, 2019, preprint.
     DOI: 10.26434/chemrxiv.8326202.v1
   for GFN-FF:
   * S. Spicher and S. Grimme, Angew. Chem. Int. Ed., 2020, 59, 15665-15673.
     DOI: 10.1002/anie.202004239
   
   for ALPB and GBSA implicit solvation:
   * S. Ehlert, M. Stahn, S. Spicher, S. Grimme, J. Chem. Theory Comput.,
     2021, 17, 4250-4261. DOI: 10.1021/acs.jctc.1c00471
   
   for ddCOSMO and CPCM-X implicit solvation:
   * M. Stahn, S. Ehlert, S. Grimme, J. Phys. Chem. A,
     2023, XX, XXXX-XXXX. DOI: 10.1021/acs.jpca.3c04382
   
   for DFT-D4:
   * E. Caldeweyher, C. Bannwarth and S. Grimme, J. Chem. Phys., 2017,
     147, 034112. DOI: 10.1063/1.4993215
   * E. Caldeweyher, S. Ehlert, A. Hansen, H. Neugebauer, S. Spicher,
     C. Bannwarth and S. Grimme, J. Chem. Phys., 2019, 150, 154122.
     DOI: 10.1063/1.5090222
   * E. Caldeweyher, J.-M. Mewes, S. Ehlert and S. Grimme, Phys. Chem. Chem. Phys.
     2020, 22, 8499-8512. DOI: 10.1039/D0CP00502A
   
   for sTDA-xTB:
   * S. Grimme and C. Bannwarth, J. Chem. Phys., 2016, 145, 054103.
     DOI: 10.1063/1.4959605
   
   in the mass-spec context:
   * V. Asgeirsson, C. Bauer and S. Grimme, Chem. Sci., 2017, 8, 4879.
     DOI: 10.1039/c7sc00601b
   * J. Koopman and S. Grimme, ACS Omega 2019, 4, 12, 15120-15133.
     DOI: 10.1021/acsomega.9b02011
   
   for metadynamics refer to:
   * S. Grimme, J. Chem. Theory Comput., 2019, 155, 2847-2862
     DOI: 10.1021/acs.jctc.9b00143
   
   for SPH calculations refer to:
   * S. Spicher and S. Grimme, J. Chem. Theory Comput., 2021, 17, 1701-1714
     DOI: 10.1021/acs.jctc.0c01306
   
   for ONIOM refer to:
   * C. Plett, A. Katbashev, S. Ehlert, S. Grimme, M. Bursch,
     Phys. Chem. Chem. Phys., 2023, 25, 17860-17868. DOI: 10.1039/D3CP02178E
   
   for DIPRO refer to:
   * J. Kohn, N. Gildemeister, S. Grimme, D. Fazzi, A. Hansen,
     J. Chem. Phys., 2023, just accepted.
   
   for PTB refer to:
   * S. Grimme, M. Mueller, A. Hansen, J. Chem. Phys., 2023, 158, 124111.
     DOI: 10.1063/5.0137838
   
   with help from (in alphabetical order)
   P. Atkinson, C. Bannwarth, F. Bohle, G. Brandenburg, E. Caldeweyher
   M. Checinski, S. Dohm, S. Ehlert, S. Ehrlich, I. Gerasimov, C. Hölzer
   A. Katbashev, J. Kohn, J. Koopman, C. Lavigne, S. Lehtola, F. März, M. Müller,
   F. Musil, H. Neugebauer, J. Pisarek, C. Plett, P. Pracht, F. Pultar,
   J. Seibert, P. Shushkov, S. Spicher, M. Stahn, M. Steiner, T. Strunk,
   J. Stückrath, T. Rose, and J. Unsleber
   
 * started run on 2025/06/25 at 12:07:14.734     
$$$$$$$$$$$$$$$$$$$$$$$$$$$$$$$$$$$$$$$$$$$$$$$$$$$$$$$$$$$$$$$$$$$$$$$$
 CONSTRAINTS & SCANS: DEBUG SECTION
$$$$$$$$$$$$$$$$$$$$$$$$$$$$$$$$$$$$$$$$$$$$$$$$$$$$$$$$$$$$$$$$$$$$$$$$
   ID    Z sym.   atoms
    1    6 C      1-6
    2    8 O      7-12
    3    1 H      13-24
$$$$$$$$$$$$$$$$$$$$$$$$$$$$$$$$$$$$$$$$$$$$$$$$$$$$$$$$$$$$$$$$$$$$$$$$

           -------------------------------------------------
          |                Calculation Setup                |
           -------------------------------------------------

          program call               : C:\Users\nkapa\Downloads\xtb-6.7.1pre-windows-x86_64\xtb-6.7.1\bin\xtb.EXE dft_tmp\mol_487.xyz --gfn2 --parallel 8 --verbose
          coordinate file            : dft_tmp\mol_487.xyz
          xtbhome directory          : C:\Users\nkapa\AppData\Roaming\SPB_Data
          path for xtb               : C:\Users\nkapa\Downloads\xtb-6.7.1pre-windows-x86_64\xtb-6.7.1\share\xtb
          xcontrol input file        : dft_tmp\mol_487.xyz
          omp threads                :                     8


           -------------------------------------------------
          |                 G F N 2 - x T B                 |
           -------------------------------------------------

        Reference                      10.1021/acs.jctc.8b01176
      * Hamiltonian:
        H0-scaling (s, p, d)           1.850000    2.230000    2.230000
        zeta-weighting                 0.500000
      * Dispersion:
        s8                             2.700000
        a1                             0.520000
        a2                             5.000000
        s9                             5.000000
      * Repulsion:
        kExp                           1.500000    1.000000
        rExp                           1.000000
      * Coulomb:
        alpha                          2.000000
        third order                    shell-resolved
        anisotropic                    true
        a3                             3.000000
        a5                             4.000000
        cn-shift                       1.200000
        cn-exp                         4.000000
        max-rad                        5.000000


          ...................................................
          :                      SETUP                      :
          :.................................................:
          :  # basis functions                  60          :
          :  # atomic orbitals                  60          :
          :  # shells                           36          :
          :  # electrons                        72          :
          :  max. iterations                   250          :
          :  Hamiltonian                  GFN2-xTB          :
          :  restarted?                      false          :
          :  GBSA solvation                  false          :
          :  PC potential                    false          :
          :  electronic temp.          300.0000000     K    :
          :  accuracy                    1.0000000          :
          :  -> integral cutoff          0.2500000E+02      :
          :  -> integral neglect         0.1000000E-07      :
          :  -> SCF convergence          0.1000000E-05 Eh   :
          :  -> wf. convergence          0.1000000E-03 e    :
          :  Broyden damping             0.4000000          :
          :  net charge                          0          :
          :  unpaired electrons                  0          :
          ...................................................

 iter      E             dE          RMSdq      gap      omega  full diag
   1    -43.5286485 -0.435286E+02  0.479E+00    3.96       0.0  T
   2    -43.5760075 -0.473591E-01  0.249E+00    3.16       1.0  T
   3    -43.5729116  0.309595E-02  0.136E+00    3.39       1.0  T
   4    -43.5850554 -0.121438E-01  0.216E-01    3.00       1.0  T
   5    -43.5852645 -0.209100E-03  0.869E-02    3.13       1.0  T
   6    -43.5852901 -0.256641E-04  0.302E-02    3.15       1.0  T
   7    -43.5852916 -0.141916E-05  0.123E-02    3.15       1.7  T
   8    -43.5852923 -0.700825E-06  0.286E-03    3.14       7.1  T
   9    -43.5852923 -0.224597E-07  0.113E-03    3.15      18.1  T
  10    -43.5852923 -0.590855E-08  0.367E-04    3.15      55.7  T
  11    -43.5852923 -0.325542E-09  0.128E-04    3.15     159.0  T

   *** convergence criteria satisfied after 11 iterations ***

         #    Occupation            Energy/Eh            Energy/eV
      -------------------------------------------------------------
         1        2.0000           -0.7248077             -19.7230
       ...           ...                  ...                  ...
        30        2.0000           -0.4640248             -12.6268
        31        2.0000           -0.4598574             -12.5134
        32        2.0000           -0.4579472             -12.4614
        33        2.0000           -0.4442387             -12.0884
        34        2.0000           -0.4221795             -11.4881
        35        2.0000           -0.4097165             -11.1490
        36        2.0000           -0.4022704             -10.9463 (HOMO)
        37                         -0.2866782              -7.8009 (LUMO)
        38                         -0.0326121              -0.8874
        39                         -0.0031491              -0.0857
        40                          0.0000992               0.0027
        41                          0.0143065               0.3893
       ...                                ...                  ...
        60                          0.5224989              14.2179
      -------------------------------------------------------------
                  HL-Gap            0.1155921 Eh            3.1454 eV
             Fermi-level           -0.3444743 Eh           -9.3736 eV

 SCC (total)                   0 d,  0 h,  0 min,  0.007 sec
 SCC setup                      ...        0 min,  0.001 sec ( 14.288%)
 Dispersion                     ...        0 min,  0.000 sec (  0.000%)
 classical contributions        ...        0 min,  0.000 sec (  0.000%)
 integral evaluation            ...        0 min,  0.000 sec (  0.000%)
 iterations                     ...        0 min,  0.005 sec ( 71.425%)
 molecular gradient             ...        0 min,  0.001 sec ( 14.288%)
 printout                       ...        0 min,  0.000 sec (  0.000%)

         :::::::::::::::::::::::::::::::::::::::::::::::::::::
         ::                     SUMMARY                     ::
         :::::::::::::::::::::::::::::::::::::::::::::::::::::
         :: total energy             -43.289055016216 Eh    ::
         :: gradient norm              0.101865237122 Eh/a0 ::
         :: HOMO-LUMO gap              3.145422368149 eV    ::
         ::.................................................::
         :: HOMO orbital eigv.       -10.946333577527 eV    ::
         :: LUMO orbital eigv.        -7.800911209377 eV    ::
         ::.................................................::
         :: SCC energy               -43.585092789826 Eh    ::
         :: -> isotropic ES            0.137692419218 Eh    ::
         :: -> anisotropic ES          0.007718628148 Eh    ::
         :: -> anisotropic XC         -0.005294441544 Eh    ::
         :: -> dispersion             -0.018725929553 Eh    ::
         :: repulsion energy           0.296037773610 Eh    ::
         :: add. restraining           0.000000000000 Eh    ::
         :: total charge              -0.000000000000 e     ::
         ::.................................................::
         :: atomisation energy         6.235228239398 Eh    ::
         :::::::::::::::::::::::::::::::::::::::::::::::::::::

           -------------------------------------------------
          |                Property Printout                |
           -------------------------------------------------

    * Orbital Energies and Occupations

         #    Occupation            Energy/Eh            Energy/eV
      -------------------------------------------------------------
         1        2.0000           -0.7248077             -19.7230
       ...           ...                  ...                  ...
        24        2.0000           -0.5261327             -14.3168
        25        2.0000           -0.5148643             -14.0102
        26        2.0000           -0.5062414             -13.7755
        27        2.0000           -0.4827419             -13.1361
        28        2.0000           -0.4803405             -13.0707
        29        2.0000           -0.4733499             -12.8805
        30        2.0000           -0.4640248             -12.6268
        31        2.0000           -0.4598574             -12.5134
        32        2.0000           -0.4579472             -12.4614
        33        2.0000           -0.4442387             -12.0884
        34        2.0000           -0.4221795             -11.4881
        35        2.0000           -0.4097165             -11.1490
        36        2.0000           -0.4022704             -10.9463 (HOMO)
        37                         -0.2866782              -7.8009 (LUMO)
        38                         -0.0326121              -0.8874
        39                         -0.0031491              -0.0857
        40                          0.0000992               0.0027
        41                          0.0143065               0.3893
        42                          0.0415284               1.1300
        43                          0.0530936               1.4448
        44                          0.0665263               1.8103
        45                          0.0687839               1.8717
        46                          0.0751243               2.0442
        47                          0.0820552               2.2328
       ...                                ...                  ...
        60                          0.5224989              14.2179
      -------------------------------------------------------------
                  HL-Gap            0.1155921 Eh            3.1454 eV
             Fermi-level           -0.3444743 Eh           -9.3736 eV

     #   Z          covCN         q      C6AA      α(0)
     1   6 C        3.668     0.070    19.659     6.357
     2   6 C        3.718     0.081    19.347     6.283
     3   6 C        3.716     0.078    19.399     6.292
     4   6 C        3.717     0.106    18.959     6.220
     5   6 C        3.722     0.092    19.156     6.250
     6   6 C        2.760     0.186    24.021     8.026
     7   8 O        0.856    -0.301    19.807     5.967
     8   8 O        1.652    -0.443    21.704     6.289
     9   8 O        1.652    -0.420    21.233     6.220
    10   8 O        1.651    -0.428    21.394     6.244
    11   8 O        1.652    -0.429    21.421     6.248
    12   8 O        1.652    -0.424    21.329     6.234
    13   1 H        0.922     0.050     2.324     2.384
    14   1 H        0.921     0.008     2.917     2.671
    15   1 H        0.922     0.069     2.095     2.263
    16   1 H        0.921     0.072     2.059     2.244
    17   1 H        0.921     0.022     2.701     2.570
    18   1 H        0.921     0.069     2.095     2.263
    19   1 H        0.925     0.055     2.256     2.349
    20   1 H        0.801     0.307     0.701     1.315
    21   1 H        0.801     0.306     0.704     1.318
    22   1 H        0.801     0.281     0.781     1.389
    23   1 H        0.801     0.294     0.739     1.351
    24   1 H        0.801     0.298     0.728     1.341

 Mol. C6AA /au·bohr⁶  :       4793.209442
 Mol. C8AA /au·bohr⁸  :     102192.485798
 Mol. α(0) /au        :        100.090181


Wiberg/Mayer (AO) data.
largest (>0.10) Wiberg bond orders for each atom

 ---------------------------------------------------------------------------
     #   Z sym  total        # sym  WBO       # sym  WBO       # sym  WBO
 ---------------------------------------------------------------------------
     1   6 C    3.963 --    12 O    1.012     2 C    0.972    14 H    0.967
                            13 H    0.967
     2   6 C    3.956 --    11 O    1.005     1 C    0.972    15 H    0.955
                             3 C    0.954
     3   6 C    3.949 --    10 O    1.000     4 C    0.955    16 H    0.955
                             2 C    0.954
     4   6 C    3.962 --     9 O    1.008    17 H    0.957     3 C    0.955
                             5 C    0.948
     5   6 C    3.958 --     8 O    0.997     6 C    0.984     4 C    0.948
                            18 H    0.936
     6   6 C    3.918 --     7 O    1.936     5 C    0.984    19 H    0.937
     7   8 O    2.084 --     6 C    1.936
     8   8 O    1.957 --     5 C    0.997    20 H    0.891
     9   8 O    1.974 --     4 C    1.008    21 H    0.891
    10   8 O    1.983 --     3 C    1.000    22 H    0.898
    11   8 O    1.979 --     2 C    1.005    23 H    0.892
    12   8 O    1.971 --     1 C    1.012    24 H    0.897
    13   1 H    0.998 --     1 C    0.967
    14   1 H    1.000 --     1 C    0.967
    15   1 H    0.995 --     2 C    0.955
    16   1 H    0.995 --     3 C    0.955
    17   1 H    1.000 --     4 C    0.957
    18   1 H    0.995 --     5 C    0.936
    19   1 H    0.997 --     6 C    0.937
    20   1 H    0.906 --     8 O    0.891
    21   1 H    0.906 --     9 O    0.891
    22   1 H    0.921 --    10 O    0.898
    23   1 H    0.913 --    11 O    0.892
    24   1 H    0.911 --    12 O    0.897
 ---------------------------------------------------------------------------

Topologies differ in total number of bonds
Writing topology from bond orders to xtbtopo.mol

molecular dipole:
                 x           y           z       tot (Debye)
 q only:        0.574       0.205      -1.278
   full:        0.752       0.365      -1.711       4.840
molecular quadrupole (traceless):
                xx          xy          yy          xz          yz          zz
 q only:       -0.685      10.969       4.672       8.054      -4.927      -3.987
  q+dip:       -0.402      17.518       4.156      10.286      -8.597      -3.754
   full:        0.015      17.461       4.803      10.647      -7.694      -4.817


           -------------------------------------------------
          | TOTAL ENERGY              -43.289055016216 Eh   |
          | GRADIENT NORM               0.101865237122 Eh/α |
          | HOMO-LUMO GAP               3.145422368149 eV   |
           -------------------------------------------------
########################################################################
[WARNING] Runtime exception occurred
-2- restart_readRestart: Dimension missmatch in restart file.
-1- restart_readRestart: Number of electron missmatch in restart file.
########################################################################

------------------------------------------------------------------------
 unit  open   action     filename
  129 false : read       dft_tmp\mol_487.xyz
  129 false : read       dft_tmp\mol_487.xyz
  129 false : read       dft_tmp\mol_487.xyz
  129 false : read       C:\Users\nkapa\Downloads\xtb-6.7.1pre-windows-x86_64\xtb-6.7.1\share\xtb\param_gfn2-xtb.txt
  129 false : read       xtbrestart
  129 false : replaced   charges
  129 false : replaced   wbo
  129 false : replaced   xtbtopo.mol
  129 false : replaced   xtbrestart

------------------------------------------------------------------------
 * finished run on 2025/06/25 at 12:07:14.756     
------------------------------------------------------------------------
 total:
 * wall-time:     0 d,  0 h,  0 min,  0.021 sec
 *  cpu-time:     0 d,  0 h,  0 min,  0.141 sec
 * ratio c/w:     6.696 speedup
 SCF:
 * wall-time:     0 d,  0 h,  0 min,  0.007 sec
 *  cpu-time:     0 d,  0 h,  0 min,  0.000 sec
 * ratio c/w:     0.000 speedup

normal termination of xtb
