26

N 4.814213 0.174598 -0.504259
C 3.701855 -0.482220 0.178804
C 2.549070 0.496066 0.440473
O 1.513548 -0.148308 1.159603
C 0.536167 -0.687735 0.288416
C -0.612100 0.306352 0.098902
O -1.589051 -0.233597 -0.772290
C -2.629640 -0.870763 -0.052766
C -3.774757 0.105366 0.230889
N -4.353603 0.594093 -1.017271
H 4.468670 0.569588 -1.409177
H 5.149178 0.971995 0.084140
H 4.062048 -0.896647 1.145291
H 3.344577 -1.329445 -0.444647
H 2.928725 1.328770 1.069797
H 2.201025 0.957097 -0.513764
H 0.134745 -1.608808 0.760107
H 0.946215 -0.997489 -0.701660
H -0.211277 1.227598 -0.372911
H -1.021674 0.615843 1.089185
H -2.282727 -1.337969 0.898566
H -3.022187 -1.701206 -0.677411
H -4.558474 -0.427667 0.812390
H -3.412197 0.959443 0.844458
H -5.204631 1.151680 -0.775669
H -3.677718 1.263364 -1.452519
