17

C 2.595260 -1.017233 0.001162
O 1.349260 -0.390278 -0.276695
C 0.504841 0.087152 0.731013
O 0.820518 -0.040482 1.945776
C -0.810252 0.717285 0.366366
C -1.861535 -0.368075 0.083083
O -1.478933 -1.177857 -0.997666
N -0.644657 1.589341 -0.797353
H 3.261650 -0.314360 0.544635
H 2.433328 -1.930143 0.612598
H 3.079221 -1.305659 -0.954376
H -1.166499 1.328786 1.227192
H -2.852155 0.102661 -0.113853
H -1.979333 -1.009520 0.982854
H -1.721401 -0.685321 -1.824663
H -1.557831 2.064032 -0.985337
H 0.028517 2.349670 -0.544737
