      -----------------------------------------------------------      
     |                   =====================                   |     
     |                           x T B                           |     
     |                   =====================                   |     
     |                         S. Grimme                         |     
     |          Mulliken Center for Theoretical Chemistry        |     
     |                    University of Bonn                     |     
      -----------------------------------------------------------      

   * xtb version 6.7.1pre (5071a88) compiled by 'Marcel@Raven' on 2024-07-23

   xtb is free software: you can redistribute it and/or modify it under
   the terms of the GNU Lesser General Public License as published by
   the Free Software Foundation, either version 3 of the License, or
   (at your option) any later version.
   
   xtb is distributed in the hope that it will be useful,
   but WITHOUT ANY WARRANTY; without even the implied warranty of
   MERCHANTABILITY or FITNESS FOR A PARTICULAR PURPOSE.  See the
   GNU Lesser General Public License for more details.
   
   Cite this work as:
   * C. Bannwarth, E. Caldeweyher, S. Ehlert, A. Hansen, P. Pracht,
     J. Seibert, S. Spicher, S. Grimme, WIREs Comput. Mol. Sci., 2020, 11,
     e01493. DOI: 10.1002/wcms.1493
   
   for GFN2-xTB:
   * C. Bannwarth, S. Ehlert and S. Grimme., J. Chem. Theory Comput., 2019,
     15, 1652-1671. DOI: 10.1021/acs.jctc.8b01176
   for GFN1-xTB:
   * S. Grimme, C. Bannwarth, P. Shushkov, J. Chem. Theory Comput., 2017,
     13, 1989-2009. DOI: 10.1021/acs.jctc.7b00118
   for GFN0-xTB:
   * P. Pracht, E. Caldeweyher, S. Ehlert, S. Grimme, ChemRxiv, 2019, preprint.
     DOI: 10.26434/chemrxiv.8326202.v1
   for GFN-FF:
   * S. Spicher and S. Grimme, Angew. Chem. Int. Ed., 2020, 59, 15665-15673.
     DOI: 10.1002/anie.202004239
   
   for ALPB and GBSA implicit solvation:
   * S. Ehlert, M. Stahn, S. Spicher, S. Grimme, J. Chem. Theory Comput.,
     2021, 17, 4250-4261. DOI: 10.1021/acs.jctc.1c00471
   
   for ddCOSMO and CPCM-X implicit solvation:
   * M. Stahn, S. Ehlert, S. Grimme, J. Phys. Chem. A,
     2023, XX, XXXX-XXXX. DOI: 10.1021/acs.jpca.3c04382
   
   for DFT-D4:
   * E. Caldeweyher, C. Bannwarth and S. Grimme, J. Chem. Phys., 2017,
     147, 034112. DOI: 10.1063/1.4993215
   * E. Caldeweyher, S. Ehlert, A. Hansen, H. Neugebauer, S. Spicher,
     C. Bannwarth and S. Grimme, J. Chem. Phys., 2019, 150, 154122.
     DOI: 10.1063/1.5090222
   * E. Caldeweyher, J.-M. Mewes, S. Ehlert and S. Grimme, Phys. Chem. Chem. Phys.
     2020, 22, 8499-8512. DOI: 10.1039/D0CP00502A
   
   for sTDA-xTB:
   * S. Grimme and C. Bannwarth, J. Chem. Phys., 2016, 145, 054103.
     DOI: 10.1063/1.4959605
   
   in the mass-spec context:
   * V. Asgeirsson, C. Bauer and S. Grimme, Chem. Sci., 2017, 8, 4879.
     DOI: 10.1039/c7sc00601b
   * J. Koopman and S. Grimme, ACS Omega 2019, 4, 12, 15120-15133.
     DOI: 10.1021/acsomega.9b02011
   
   for metadynamics refer to:
   * S. Grimme, J. Chem. Theory Comput., 2019, 155, 2847-2862
     DOI: 10.1021/acs.jctc.9b00143
   
   for SPH calculations refer to:
   * S. Spicher and S. Grimme, J. Chem. Theory Comput., 2021, 17, 1701-1714
     DOI: 10.1021/acs.jctc.0c01306
   
   for ONIOM refer to:
   * C. Plett, A. Katbashev, S. Ehlert, S. Grimme, M. Bursch,
     Phys. Chem. Chem. Phys., 2023, 25, 17860-17868. DOI: 10.1039/D3CP02178E
   
   for DIPRO refer to:
   * J. Kohn, N. Gildemeister, S. Grimme, D. Fazzi, A. Hansen,
     J. Chem. Phys., 2023, just accepted.
   
   for PTB refer to:
   * S. Grimme, M. Mueller, A. Hansen, J. Chem. Phys., 2023, 158, 124111.
     DOI: 10.1063/5.0137838
   
   with help from (in alphabetical order)
   P. Atkinson, C. Bannwarth, F. Bohle, G. Brandenburg, E. Caldeweyher
   M. Checinski, S. Dohm, S. Ehlert, S. Ehrlich, I. Gerasimov, C. Hölzer
   A. Katbashev, J. Kohn, J. Koopman, C. Lavigne, S. Lehtola, F. März, M. Müller,
   F. Musil, H. Neugebauer, J. Pisarek, C. Plett, P. Pracht, F. Pultar,
   J. Seibert, P. Shushkov, S. Spicher, M. Stahn, M. Steiner, T. Strunk,
   J. Stückrath, T. Rose, and J. Unsleber
   
 * started run on 2025/06/25 at 12:06:57.436     
$$$$$$$$$$$$$$$$$$$$$$$$$$$$$$$$$$$$$$$$$$$$$$$$$$$$$$$$$$$$$$$$$$$$$$$$
 CONSTRAINTS & SCANS: DEBUG SECTION
$$$$$$$$$$$$$$$$$$$$$$$$$$$$$$$$$$$$$$$$$$$$$$$$$$$$$$$$$$$$$$$$$$$$$$$$
   ID    Z sym.   atoms
    1    6 C      1, 2
    2    8 O      3
    3    1 H      4-9
$$$$$$$$$$$$$$$$$$$$$$$$$$$$$$$$$$$$$$$$$$$$$$$$$$$$$$$$$$$$$$$$$$$$$$$$

           -------------------------------------------------
          |                Calculation Setup                |
           -------------------------------------------------

          program call               : C:\Users\nkapa\Downloads\xtb-6.7.1pre-windows-x86_64\xtb-6.7.1\bin\xtb.EXE dft_tmp\mol_359.xyz --gfn2 --parallel 8 --verbose
          coordinate file            : dft_tmp\mol_359.xyz
          xtbhome directory          : C:\Users\nkapa\AppData\Roaming\SPB_Data
          path for xtb               : C:\Users\nkapa\Downloads\xtb-6.7.1pre-windows-x86_64\xtb-6.7.1\share\xtb
          xcontrol input file        : dft_tmp\mol_359.xyz
          omp threads                :                     8


           -------------------------------------------------
          |                 G F N 2 - x T B                 |
           -------------------------------------------------

        Reference                      10.1021/acs.jctc.8b01176
      * Hamiltonian:
        H0-scaling (s, p, d)           1.850000    2.230000    2.230000
        zeta-weighting                 0.500000
      * Dispersion:
        s8                             2.700000
        a1                             0.520000
        a2                             5.000000
        s9                             5.000000
      * Repulsion:
        kExp                           1.500000    1.000000
        rExp                           1.000000
      * Coulomb:
        alpha                          2.000000
        third order                    shell-resolved
        anisotropic                    true
        a3                             3.000000
        a5                             4.000000
        cn-shift                       1.200000
        cn-exp                         4.000000
        max-rad                        5.000000


          ...................................................
          :                      SETUP                      :
          :.................................................:
          :  # basis functions                  18          :
          :  # atomic orbitals                  18          :
          :  # shells                           12          :
          :  # electrons                        20          :
          :  max. iterations                   250          :
          :  Hamiltonian                  GFN2-xTB          :
          :  restarted?                      false          :
          :  GBSA solvation                  false          :
          :  PC potential                    false          :
          :  electronic temp.          300.0000000     K    :
          :  accuracy                    1.0000000          :
          :  -> integral cutoff          0.2500000E+02      :
          :  -> integral neglect         0.1000000E-07      :
          :  -> SCF convergence          0.1000000E-05 Eh   :
          :  -> wf. convergence          0.1000000E-03 e    :
          :  Broyden damping             0.4000000          :
          :  net charge                          0          :
          :  unpaired electrons                  0          :
          ...................................................

 iter      E             dE          RMSdq      gap      omega  full diag
   1    -11.4737749 -0.114738E+02  0.365E+00   12.75       0.0  T
   2    -11.4959855 -0.222106E-01  0.197E+00   12.51       1.0  T
   3    -11.4964468 -0.461298E-03  0.818E-01   12.52       1.0  T
   4    -11.4966158 -0.169052E-03  0.130E-01   12.50       1.0  T
   5    -11.4966318 -0.159772E-04  0.715E-02   12.52       1.0  T
   6    -11.4966330 -0.116210E-05  0.114E-02   12.53       2.9  T
   7    -11.4966331 -0.139297E-06  0.362E-03   12.53       9.2  T
   8    -11.4966331 -0.168252E-07  0.150E-03   12.53      22.2  T
   9    -11.4966331 -0.107898E-08  0.165E-04   12.53     202.2  T
  10    -11.4966331 -0.315357E-10  0.376E-05   12.53     886.5  T

   *** convergence criteria satisfied after 10 iterations ***

         #    Occupation            Energy/Eh            Energy/eV
      -------------------------------------------------------------
         1        2.0000           -0.6862548             -18.6739
       ...           ...                  ...                  ...
         4        2.0000           -0.5609454             -15.2641
         5        2.0000           -0.5280793             -14.3698
         6        2.0000           -0.5080157             -13.8238
         7        2.0000           -0.4817616             -13.1094
         8        2.0000           -0.4638971             -12.6233
         9        2.0000           -0.4376114             -11.9080
        10        2.0000           -0.4122215             -11.2171 (HOMO)
        11                          0.0482799               1.3138 (LUMO)
        12                          0.1036081               2.8193
        13                          0.1144568               3.1145
        14                          0.1304076               3.5486
        15                          0.1510018               4.1090
       ...                                ...                  ...
        18                          0.2497896               6.7971
      -------------------------------------------------------------
                  HL-Gap            0.4605014 Eh           12.5309 eV
             Fermi-level           -0.1819708 Eh           -4.9517 eV

 SCC (total)                   0 d,  0 h,  0 min,  0.004 sec
 SCC setup                      ...        0 min,  0.000 sec (  0.000%)
 Dispersion                     ...        0 min,  0.000 sec (  0.000%)
 classical contributions        ...        0 min,  0.000 sec (  0.000%)
 integral evaluation            ...        0 min,  0.001 sec ( 24.999%)
 iterations                     ...        0 min,  0.001 sec ( 24.999%)
 molecular gradient             ...        0 min,  0.002 sec ( 50.003%)
 printout                       ...        0 min,  0.000 sec (  0.000%)

         :::::::::::::::::::::::::::::::::::::::::::::::::::::
         ::                     SUMMARY                     ::
         :::::::::::::::::::::::::::::::::::::::::::::::::::::
         :: total energy             -11.390899300848 Eh    ::
         :: gradient norm              0.047340412042 Eh/a0 ::
         :: HOMO-LUMO gap             12.530881846631 eV    ::
         ::.................................................::
         :: HOMO orbital eigv.       -11.217117983220 eV    ::
         :: LUMO orbital eigv.         1.313763863410 eV    ::
         ::.................................................::
         :: SCC energy               -11.496632576584 Eh    ::
         :: -> isotropic ES            0.025323922870 Eh    ::
         :: -> anisotropic ES          0.003190308412 Eh    ::
         :: -> anisotropic XC          0.002837117014 Eh    ::
         :: -> dispersion             -0.002794544524 Eh    ::
         :: repulsion energy           0.105733275736 Eh    ::
         :: add. restraining           0.000000000000 Eh    ::
         :: total charge               0.000000000000 e     ::
         ::.................................................::
         :: atomisation energy         2.018450984404 Eh    ::
         :::::::::::::::::::::::::::::::::::::::::::::::::::::

           -------------------------------------------------
          |                Property Printout                |
           -------------------------------------------------

    * Orbital Energies and Occupations

         #    Occupation            Energy/Eh            Energy/eV
      -------------------------------------------------------------
         1        2.0000           -0.6862548             -18.6739
         2        2.0000           -0.6239917             -16.9797
         3        2.0000           -0.5892359             -16.0339
         4        2.0000           -0.5609454             -15.2641
         5        2.0000           -0.5280793             -14.3698
         6        2.0000           -0.5080157             -13.8238
         7        2.0000           -0.4817616             -13.1094
         8        2.0000           -0.4638971             -12.6233
         9        2.0000           -0.4376114             -11.9080
        10        2.0000           -0.4122215             -11.2171 (HOMO)
        11                          0.0482799               1.3138 (LUMO)
        12                          0.1036081               2.8193
        13                          0.1144568               3.1145
        14                          0.1304076               3.5486
        15                          0.1510018               4.1090
        16                          0.1655889               4.5059
        17                          0.2250370               6.1236
        18                          0.2497896               6.7971
      -------------------------------------------------------------
                  HL-Gap            0.4605014 Eh           12.5309 eV
             Fermi-level           -0.1819708 Eh           -4.9517 eV

     #   Z          covCN         q      C6AA      α(0)
     1   6 C        3.740    -0.112    22.716     6.800
     2   6 C        3.668     0.088    19.356     6.308
     3   8 O        1.652    -0.435    21.546     6.266
     4   1 H        0.922     0.035     2.511     2.478
     5   1 H        0.922     0.034     2.528     2.487
     6   1 H        0.922     0.050     2.319     2.381
     7   1 H        0.921     0.011     2.880     2.654
     8   1 H        0.922     0.042     2.424     2.435
     9   1 H        0.801     0.286     0.765     1.374

 Mol. C6AA /au·bohr⁶  :        509.500490
 Mol. C8AA /au·bohr⁸  :      10118.022571
 Mol. α(0) /au        :         33.182652


Wiberg/Mayer (AO) data.
largest (>0.10) Wiberg bond orders for each atom

 ---------------------------------------------------------------------------
     #   Z sym  total        # sym  WBO       # sym  WBO       # sym  WBO
 ---------------------------------------------------------------------------
     1   6 C    3.996 --     2 C    1.010     4 H    0.986     5 H    0.986
                             6 H    0.986
     2   6 C    3.959 --     1 C    1.010     3 O    1.003     7 H    0.972
                             8 H    0.972
     3   8 O    1.964 --     2 C    1.003     9 H    0.904
     4   1 H    0.999 --     1 C    0.986
     5   1 H    0.999 --     1 C    0.986
     6   1 H    0.997 --     1 C    0.986
     7   1 H    1.000 --     2 C    0.972
     8   1 H    0.998 --     2 C    0.972
     9   1 H    0.918 --     3 O    0.904
 ---------------------------------------------------------------------------

Topologies differ in total number of bonds
Writing topology from bond orders to xtbtopo.mol

molecular dipole:
                 x           y           z       tot (Debye)
 q only:       -0.270       0.140      -0.453
   full:       -0.326       0.203      -0.666       1.954
molecular quadrupole (traceless):
                xx          xy          yy          xz          yz          zz
 q only:       -0.942       1.070       2.018      -2.025      -0.657      -1.076
  q+dip:       -2.144       1.088       2.897      -3.370      -1.543      -0.753
   full:       -1.843       1.339       2.902      -3.086      -1.344      -1.059


           -------------------------------------------------
          | TOTAL ENERGY              -11.390899300848 Eh   |
          | GRADIENT NORM               0.047340412042 Eh/α |
          | HOMO-LUMO GAP              12.530881846631 eV   |
           -------------------------------------------------
########################################################################
[WARNING] Runtime exception occurred
-2- restart_readRestart: Dimension missmatch in restart file.
-1- restart_readRestart: Number of electron missmatch in restart file.
########################################################################

------------------------------------------------------------------------
 unit  open   action     filename
  129 false : read       dft_tmp\mol_359.xyz
  129 false : read       dft_tmp\mol_359.xyz
  129 false : read       dft_tmp\mol_359.xyz
  129 false : read       C:\Users\nkapa\Downloads\xtb-6.7.1pre-windows-x86_64\xtb-6.7.1\share\xtb\param_gfn2-xtb.txt
  129 false : read       xtbrestart
  129 false : replaced   charges
  129 false : replaced   wbo
  129 false : replaced   xtbtopo.mol
  129 false : replaced   xtbrestart

------------------------------------------------------------------------
 * finished run on 2025/06/25 at 12:06:57.463     
------------------------------------------------------------------------
 total:
 * wall-time:     0 d,  0 h,  0 min,  0.026 sec
 *  cpu-time:     0 d,  0 h,  0 min,  0.125 sec
 * ratio c/w:     4.808 speedup
 SCF:
 * wall-time:     0 d,  0 h,  0 min,  0.004 sec
 *  cpu-time:     0 d,  0 h,  0 min,  0.125 sec
 * ratio c/w:    31.250 speedup

normal termination of xtb
