20

C -3.657603 0.562483 -0.239039
O -2.389631 1.190753 -0.082174
C -1.164853 0.507553 -0.064290
C 0.013296 1.260576 0.099006
C 1.233283 0.589355 0.117785
C 1.311187 -0.783729 -0.018822
C 0.164370 -1.556119 -0.181855
C -1.081552 -0.904991 -0.204593
N 2.657317 -1.257957 0.029494
C 3.446051 -0.082986 0.208311
O 4.701554 -0.083805 0.299109
C 2.588599 1.092396 0.268008
O 2.946133 2.290205 0.417980
H -3.704014 0.034467 -1.214885
H -3.834793 -0.152692 0.591840
H -4.451254 1.337051 -0.216249
H -0.026256 2.336934 0.207648
H 0.230135 -2.631088 -0.288456
H -1.972688 -1.504133 -0.331171
H 2.990719 -2.244274 -0.048555
