19

C -1.930839 -0.467107 -1.020755
C -0.800373 -0.327174 0.006722
C -1.368417 0.177863 1.341664
C 0.300262 0.607192 -0.539939
C 1.543892 0.578092 0.309769
O 1.620095 1.286798 1.302103
C 2.703750 -0.290511 -0.073530
H -2.710255 -1.163257 -0.643546
H -2.399024 0.520026 -1.224810
H -1.536014 -0.880996 -1.973157
H -0.365672 -1.338675 0.170250
H -1.759202 1.212701 1.235916
H -0.586580 0.163989 2.128797
H -2.194442 -0.482548 1.682060
H 0.571905 0.286629 -1.569892
H -0.076940 1.650992 -0.613823
H 3.121015 0.051703 -1.043492
H 2.365056 -1.343031 -0.172237
H 3.501783 -0.242685 0.697897
