24

C -2.890829 1.036528 -0.480146
N -1.852258 -0.006242 -0.511298
C -2.327752 -1.190653 0.225861
C -0.594954 0.513359 0.070082
C 0.608318 -0.333407 -0.375777
N 1.879922 0.378754 -0.121515
C 2.261064 0.292661 1.299626
C 2.953329 -0.194915 -0.949567
H -3.082368 1.383558 0.560136
H -3.838526 0.651531 -0.915160
H -2.580562 1.904118 -1.101389
H -2.503726 -0.957693 1.299873
H -1.593751 -2.018566 0.147878
H -3.275042 -1.564902 -0.219149
H -0.412504 1.553176 -0.285566
H -0.658190 0.549422 1.180482
H 0.600755 -1.322845 0.133383
H 0.489130 -0.521314 -1.467326
H 2.375787 -0.765007 1.626608
H 1.502603 0.791168 1.937206
H 3.220242 0.826938 1.472774
H 2.717336 -0.062352 -2.027368
H 3.911852 0.335851 -0.762183
H 3.090121 -1.279168 -0.737467
