20

C -2.326051 -0.358332 0.143915
C -1.000330 0.017571 -0.540153
C 0.076294 0.391375 0.495649
C 1.377518 0.780941 -0.161835
C 2.357941 -0.023693 0.215643
C 1.796290 -0.986794 1.126577
O 2.422612 -1.918000 1.695892
O 0.443411 -0.741745 1.288444
O 3.687489 0.046766 -0.190978
O 1.534526 1.848909 -1.037197
O -0.551174 -1.062268 -1.319234
O -2.836145 0.721931 0.878759
Na 0.000000 0.000000 0.000000
H -3.068680 -0.679711 -0.621601
H -2.166559 -1.216213 0.831430
H -1.176823 0.904262 -1.193940
H -0.266532 1.219253 1.153285
H 4.001536 0.759665 -0.838630
H -1.102960 -1.070729 -2.144707
H -3.202361 1.366812 0.218681
