20

C -2.201858 -0.570978 -0.251031
C -1.029498 0.305622 0.229546
C 0.331222 -0.236541 -0.274874
C 1.507237 0.662216 0.185970
C 2.822375 0.217488 -0.402968
O 3.840879 0.847758 -0.167836
O 1.589199 0.715075 1.589380
O 0.512466 -1.547070 0.206102
O -1.225262 1.638372 -0.176889
O -3.423072 -0.041741 0.190006
H -2.085918 -1.615072 0.119011
H -2.213447 -0.606781 -1.361429
H -1.025505 0.285375 1.341485
H 0.305144 -0.234798 -1.392161
H 1.326861 1.694492 -0.183671
H 2.879661 -0.655811 -1.044754
H 1.835518 -0.190942 1.913034
H 0.971142 -2.064054 -0.506254
H -1.225234 1.651918 -1.170026
H -3.491910 -0.254529 1.157362
