23

C -4.579701 0.469396 0.016053
O -3.392316 -0.025408 0.593002
C -2.309435 0.228404 -0.276457
C -1.028707 -0.307403 0.350296
O 0.053936 -0.053227 -0.519636
C 1.245638 -0.547001 0.054297
C 2.408699 -0.271658 -0.895706
O 3.602716 -0.835604 -0.385601
C 4.363793 0.144923 0.284767
H -4.803965 -0.041978 -0.946566
H -5.421491 0.263624 0.708610
H -4.527749 1.571192 -0.131523
H -2.186673 1.323408 -0.444126
H -2.461571 -0.282461 -1.255274
H -1.151115 -1.402358 0.517759
H -0.876350 0.203479 1.328948
H 1.178141 -1.647485 0.216082
H 1.451076 -0.042280 1.025387
H 2.188826 -0.763112 -1.867446
H 2.480889 0.822725 -1.105974
H 3.781339 0.628111 1.100151
H 4.738639 0.910074 -0.430308
H 5.245381 -0.345361 0.746188
