      -----------------------------------------------------------      
     |                   =====================                   |     
     |                           x T B                           |     
     |                   =====================                   |     
     |                         S. Grimme                         |     
     |          Mulliken Center for Theoretical Chemistry        |     
     |                    University of Bonn                     |     
      -----------------------------------------------------------      

   * xtb version 6.7.1pre (5071a88) compiled by 'Marcel@Raven' on 2024-07-23

   xtb is free software: you can redistribute it and/or modify it under
   the terms of the GNU Lesser General Public License as published by
   the Free Software Foundation, either version 3 of the License, or
   (at your option) any later version.
   
   xtb is distributed in the hope that it will be useful,
   but WITHOUT ANY WARRANTY; without even the implied warranty of
   MERCHANTABILITY or FITNESS FOR A PARTICULAR PURPOSE.  See the
   GNU Lesser General Public License for more details.
   
   Cite this work as:
   * C. Bannwarth, E. Caldeweyher, S. Ehlert, A. Hansen, P. Pracht,
     J. Seibert, S. Spicher, S. Grimme, WIREs Comput. Mol. Sci., 2020, 11,
     e01493. DOI: 10.1002/wcms.1493
   
   for GFN2-xTB:
   * C. Bannwarth, S. Ehlert and S. Grimme., J. Chem. Theory Comput., 2019,
     15, 1652-1671. DOI: 10.1021/acs.jctc.8b01176
   for GFN1-xTB:
   * S. Grimme, C. Bannwarth, P. Shushkov, J. Chem. Theory Comput., 2017,
     13, 1989-2009. DOI: 10.1021/acs.jctc.7b00118
   for GFN0-xTB:
   * P. Pracht, E. Caldeweyher, S. Ehlert, S. Grimme, ChemRxiv, 2019, preprint.
     DOI: 10.26434/chemrxiv.8326202.v1
   for GFN-FF:
   * S. Spicher and S. Grimme, Angew. Chem. Int. Ed., 2020, 59, 15665-15673.
     DOI: 10.1002/anie.202004239
   
   for ALPB and GBSA implicit solvation:
   * S. Ehlert, M. Stahn, S. Spicher, S. Grimme, J. Chem. Theory Comput.,
     2021, 17, 4250-4261. DOI: 10.1021/acs.jctc.1c00471
   
   for ddCOSMO and CPCM-X implicit solvation:
   * M. Stahn, S. Ehlert, S. Grimme, J. Phys. Chem. A,
     2023, XX, XXXX-XXXX. DOI: 10.1021/acs.jpca.3c04382
   
   for DFT-D4:
   * E. Caldeweyher, C. Bannwarth and S. Grimme, J. Chem. Phys., 2017,
     147, 034112. DOI: 10.1063/1.4993215
   * E. Caldeweyher, S. Ehlert, A. Hansen, H. Neugebauer, S. Spicher,
     C. Bannwarth and S. Grimme, J. Chem. Phys., 2019, 150, 154122.
     DOI: 10.1063/1.5090222
   * E. Caldeweyher, J.-M. Mewes, S. Ehlert and S. Grimme, Phys. Chem. Chem. Phys.
     2020, 22, 8499-8512. DOI: 10.1039/D0CP00502A
   
   for sTDA-xTB:
   * S. Grimme and C. Bannwarth, J. Chem. Phys., 2016, 145, 054103.
     DOI: 10.1063/1.4959605
   
   in the mass-spec context:
   * V. Asgeirsson, C. Bauer and S. Grimme, Chem. Sci., 2017, 8, 4879.
     DOI: 10.1039/c7sc00601b
   * J. Koopman and S. Grimme, ACS Omega 2019, 4, 12, 15120-15133.
     DOI: 10.1021/acsomega.9b02011
   
   for metadynamics refer to:
   * S. Grimme, J. Chem. Theory Comput., 2019, 155, 2847-2862
     DOI: 10.1021/acs.jctc.9b00143
   
   for SPH calculations refer to:
   * S. Spicher and S. Grimme, J. Chem. Theory Comput., 2021, 17, 1701-1714
     DOI: 10.1021/acs.jctc.0c01306
   
   for ONIOM refer to:
   * C. Plett, A. Katbashev, S. Ehlert, S. Grimme, M. Bursch,
     Phys. Chem. Chem. Phys., 2023, 25, 17860-17868. DOI: 10.1039/D3CP02178E
   
   for DIPRO refer to:
   * J. Kohn, N. Gildemeister, S. Grimme, D. Fazzi, A. Hansen,
     J. Chem. Phys., 2023, just accepted.
   
   for PTB refer to:
   * S. Grimme, M. Mueller, A. Hansen, J. Chem. Phys., 2023, 158, 124111.
     DOI: 10.1063/5.0137838
   
   with help from (in alphabetical order)
   P. Atkinson, C. Bannwarth, F. Bohle, G. Brandenburg, E. Caldeweyher
   M. Checinski, S. Dohm, S. Ehlert, S. Ehrlich, I. Gerasimov, C. Hölzer
   A. Katbashev, J. Kohn, J. Koopman, C. Lavigne, S. Lehtola, F. März, M. Müller,
   F. Musil, H. Neugebauer, J. Pisarek, C. Plett, P. Pracht, F. Pultar,
   J. Seibert, P. Shushkov, S. Spicher, M. Stahn, M. Steiner, T. Strunk,
   J. Stückrath, T. Rose, and J. Unsleber
   
 * started run on 2025/06/25 at 12:06:36.238     
$$$$$$$$$$$$$$$$$$$$$$$$$$$$$$$$$$$$$$$$$$$$$$$$$$$$$$$$$$$$$$$$$$$$$$$$
 CONSTRAINTS & SCANS: DEBUG SECTION
$$$$$$$$$$$$$$$$$$$$$$$$$$$$$$$$$$$$$$$$$$$$$$$$$$$$$$$$$$$$$$$$$$$$$$$$
   ID    Z sym.   atoms
    1    6 C      1, 3, 5, 6
    2    8 O      2, 4, 7
    3    7 N      8
    4    1 H      9-17
$$$$$$$$$$$$$$$$$$$$$$$$$$$$$$$$$$$$$$$$$$$$$$$$$$$$$$$$$$$$$$$$$$$$$$$$

           -------------------------------------------------
          |                Calculation Setup                |
           -------------------------------------------------

          program call               : C:\Users\nkapa\Downloads\xtb-6.7.1pre-windows-x86_64\xtb-6.7.1\bin\xtb.EXE dft_tmp\mol_194.xyz --gfn2 --parallel 8 --verbose
          coordinate file            : dft_tmp\mol_194.xyz
          xtbhome directory          : C:\Users\nkapa\AppData\Roaming\SPB_Data
          path for xtb               : C:\Users\nkapa\Downloads\xtb-6.7.1pre-windows-x86_64\xtb-6.7.1\share\xtb
          xcontrol input file        : dft_tmp\mol_194.xyz
          omp threads                :                     8


           -------------------------------------------------
          |                 G F N 2 - x T B                 |
           -------------------------------------------------

        Reference                      10.1021/acs.jctc.8b01176
      * Hamiltonian:
        H0-scaling (s, p, d)           1.850000    2.230000    2.230000
        zeta-weighting                 0.500000
      * Dispersion:
        s8                             2.700000
        a1                             0.520000
        a2                             5.000000
        s9                             5.000000
      * Repulsion:
        kExp                           1.500000    1.000000
        rExp                           1.000000
      * Coulomb:
        alpha                          2.000000
        third order                    shell-resolved
        anisotropic                    true
        a3                             3.000000
        a5                             4.000000
        cn-shift                       1.200000
        cn-exp                         4.000000
        max-rad                        5.000000


          ...................................................
          :                      SETUP                      :
          :.................................................:
          :  # basis functions                  41          :
          :  # atomic orbitals                  41          :
          :  # shells                           25          :
          :  # electrons                        48          :
          :  max. iterations                   250          :
          :  Hamiltonian                  GFN2-xTB          :
          :  restarted?                      false          :
          :  GBSA solvation                  false          :
          :  PC potential                    false          :
          :  electronic temp.          300.0000000     K    :
          :  accuracy                    1.0000000          :
          :  -> integral cutoff          0.2500000E+02      :
          :  -> integral neglect         0.1000000E-07      :
          :  -> SCF convergence          0.1000000E-05 Eh   :
          :  -> wf. convergence          0.1000000E-03 e    :
          :  Broyden damping             0.4000000          :
          :  net charge                          0          :
          :  unpaired electrons                  0          :
          ...................................................

 iter      E             dE          RMSdq      gap      omega  full diag
   1    -28.3893714 -0.283894E+02  0.475E+00    3.56       0.0  T
   2    -28.4443485 -0.549771E-01  0.241E+00    3.44       1.0  T
   3    -28.4454189 -0.107045E-02  0.138E+00    3.83       1.0  T
   4    -28.4523513 -0.693237E-02  0.253E-01    3.46       1.0  T
   5    -28.4528463 -0.494990E-03  0.895E-02    3.49       1.0  T
   6    -28.4528605 -0.141828E-04  0.438E-02    3.48       1.0  T
   7    -28.4528636 -0.308775E-05  0.107E-02    3.48       2.3  T
   8    -28.4528638 -0.256680E-06  0.441E-03    3.48       5.5  T
   9    -28.4528638 -0.280972E-07  0.159E-03    3.48      15.2  T
  10    -28.4528639 -0.426297E-08  0.445E-04    3.48      54.5  T
  11    -28.4528639 -0.597847E-09  0.209E-04    3.48     115.8  T

   *** convergence criteria satisfied after 11 iterations ***

         #    Occupation            Energy/Eh            Energy/eV
      -------------------------------------------------------------
         1        2.0000           -0.7369251             -20.0528
       ...           ...                  ...                  ...
        18        2.0000           -0.4899918             -13.3334
        19        2.0000           -0.4736202             -12.8879
        20        2.0000           -0.4563282             -12.4173
        21        2.0000           -0.4466467             -12.1539
        22        2.0000           -0.4350073             -11.8372
        23        2.0000           -0.4262482             -11.5988
        24        2.0000           -0.3896484             -10.6029 (HOMO)
        25                         -0.2616227              -7.1191 (LUMO)
        26                         -0.0502690              -1.3679
        27                         -0.0007204              -0.0196
        28                          0.0474122               1.2902
        29                          0.0686575               1.8683
       ...                                ...                  ...
        41                          0.4562697              12.4157
      -------------------------------------------------------------
                  HL-Gap            0.1280257 Eh            3.4838 eV
             Fermi-level           -0.3256355 Eh           -8.8610 eV

 SCC (total)                   0 d,  0 h,  0 min,  0.006 sec
 SCC setup                      ...        0 min,  0.000 sec (  0.000%)
 Dispersion                     ...        0 min,  0.001 sec ( 16.665%)
 classical contributions        ...        0 min,  0.000 sec (  0.000%)
 integral evaluation            ...        0 min,  0.000 sec (  0.000%)
 iterations                     ...        0 min,  0.004 sec ( 66.665%)
 molecular gradient             ...        0 min,  0.001 sec ( 16.669%)
 printout                       ...        0 min,  0.000 sec (  0.000%)

         :::::::::::::::::::::::::::::::::::::::::::::::::::::
         ::                     SUMMARY                     ::
         :::::::::::::::::::::::::::::::::::::::::::::::::::::
         :: total energy             -28.242096603045 Eh    ::
         :: gradient norm              0.136196432820 Eh/a0 ::
         :: HOMO-LUMO gap              3.483756722697 eV    ::
         ::.................................................::
         :: HOMO orbital eigv.       -10.602871499793 eV    ::
         :: LUMO orbital eigv.        -7.119114777095 eV    ::
         ::.................................................::
         :: SCC energy               -28.452814684738 Eh    ::
         :: -> isotropic ES            0.078590626758 Eh    ::
         :: -> anisotropic ES          0.002441927687 Eh    ::
         :: -> anisotropic XC          0.006276580727 Eh    ::
         :: -> dispersion             -0.010248846081 Eh    ::
         :: repulsion energy           0.210718081693 Eh    ::
         :: add. restraining           0.000000000000 Eh    ::
         :: total charge              -0.000000000000 e     ::
         ::.................................................::
         :: atomisation energy         4.381179038321 Eh    ::
         :::::::::::::::::::::::::::::::::::::::::::::::::::::

           -------------------------------------------------
          |                Property Printout                |
           -------------------------------------------------

    * Orbital Energies and Occupations

         #    Occupation            Energy/Eh            Energy/eV
      -------------------------------------------------------------
         1        2.0000           -0.7369251             -20.0528
       ...           ...                  ...                  ...
        12        2.0000           -0.5566345             -15.1468
        13        2.0000           -0.5479231             -14.9097
        14        2.0000           -0.5408311             -14.7168
        15        2.0000           -0.5160545             -14.0426
        16        2.0000           -0.5123816             -13.9426
        17        2.0000           -0.5001498             -13.6098
        18        2.0000           -0.4899918             -13.3334
        19        2.0000           -0.4736202             -12.8879
        20        2.0000           -0.4563282             -12.4173
        21        2.0000           -0.4466467             -12.1539
        22        2.0000           -0.4350073             -11.8372
        23        2.0000           -0.4262482             -11.5988
        24        2.0000           -0.3896484             -10.6029 (HOMO)
        25                         -0.2616227              -7.1191 (LUMO)
        26                         -0.0502690              -1.3679
        27                         -0.0007204              -0.0196
        28                          0.0474122               1.2902
        29                          0.0686575               1.8683
        30                          0.0944097               2.5690
        31                          0.1011240               2.7517
        32                          0.1045832               2.8459
        33                          0.1223282               3.3287
        34                          0.1257072               3.4207
        35                          0.1546996               4.2096
       ...                                ...                  ...
        41                          0.4562697              12.4157
      -------------------------------------------------------------
                  HL-Gap            0.1280257 Eh            3.4838 eV
             Fermi-level           -0.3256355 Eh           -8.8610 eV

     #   Z          covCN         q      C6AA      α(0)
     1   6 C        3.619     0.040    20.348     6.505
     2   8 O        1.700    -0.264    18.375     5.788
     3   6 C        2.695     0.330    21.393     7.570
     4   8 O        0.856    -0.413    21.936     6.279
     5   6 C        3.779     0.028    20.124     6.391
     6   6 C        3.673     0.076    19.534     6.334
     7   8 O        1.652    -0.429    21.413     6.247
     8   7 N        2.627    -0.329    28.466     7.924
     9   1 H        0.922     0.068     2.111     2.272
    10   1 H        0.922     0.065     2.142     2.289
    11   1 H        0.922     0.059     2.211     2.326
    12   1 H        0.921     0.071     2.077     2.254
    13   1 H        0.921     0.039     2.467     2.456
    14   1 H        0.921     0.060     2.202     2.321
    15   1 H        0.801     0.297     0.732     1.344
    16   1 H        0.857     0.151     1.392     1.848
    17   1 H        0.857     0.150     1.399     1.853

 Mol. C6AA /au·bohr⁶  :       2396.595509
 Mol. C8AA /au·bohr⁸  :      50503.801982
 Mol. α(0) /au        :         72.000818


Wiberg/Mayer (AO) data.
largest (>0.10) Wiberg bond orders for each atom

 ---------------------------------------------------------------------------
     #   Z sym  total        # sym  WBO       # sym  WBO       # sym  WBO
 ---------------------------------------------------------------------------
     1   6 C    3.925 --     9 H    0.978    11 H    0.976    10 H    0.975
                             2 O    0.966
     2   8 O    2.296 --     3 C    1.109     1 C    0.966     4 O    0.170
     3   6 C    3.912 --     4 O    1.743     2 O    1.109     5 C    0.968
     4   8 O    2.013 --     3 C    1.743     2 O    0.170
     5   6 C    3.982 --     8 N    1.006     3 C    0.968     6 C    0.963
                            12 H    0.957
     6   6 C    3.958 --     7 O    1.012    14 H    0.968    13 H    0.968
                             5 C    0.963
     7   8 O    1.969 --     6 C    1.012    15 H    0.898
     8   7 N    3.025 --     5 C    1.006    17 H    0.963    16 H    0.962
     9   1 H    0.995 --     1 C    0.978
    10   1 H    0.996 --     1 C    0.975
    11   1 H    0.996 --     1 C    0.976
    12   1 H    0.995 --     5 C    0.957
    13   1 H    0.998 --     6 C    0.968
    14   1 H    0.996 --     6 C    0.968
    15   1 H    0.912 --     7 O    0.898
    16   1 H    0.977 --     8 N    0.962
    17   1 H    0.977 --     8 N    0.963
 ---------------------------------------------------------------------------

Topologies differ in total number of bonds
Writing topology from bond orders to xtbtopo.mol

molecular dipole:
                 x           y           z       tot (Debye)
 q only:       -0.199       0.800       0.159
   full:        0.058       0.841       0.064       2.150
molecular quadrupole (traceless):
                xx          xy          yy          xz          yz          zz
 q only:        8.296       4.009      -3.953       4.951      -1.255      -4.343
  q+dip:        9.007       7.097      -5.298       4.753       0.048      -3.709
   full:        8.526       7.183      -4.660       4.498      -0.876      -3.866


           -------------------------------------------------
          | TOTAL ENERGY              -28.242096603045 Eh   |
          | GRADIENT NORM               0.136196432820 Eh/α |
          | HOMO-LUMO GAP               3.483756722697 eV   |
           -------------------------------------------------
########################################################################
[WARNING] Runtime exception occurred
-2- restart_readRestart: Dimension missmatch in restart file.
-1- restart_readRestart: Number of electron missmatch in restart file.
########################################################################

------------------------------------------------------------------------
 unit  open   action     filename
  129 false : read       dft_tmp\mol_194.xyz
  129 false : read       dft_tmp\mol_194.xyz
  129 false : read       dft_tmp\mol_194.xyz
  129 false : read       C:\Users\nkapa\Downloads\xtb-6.7.1pre-windows-x86_64\xtb-6.7.1\share\xtb\param_gfn2-xtb.txt
  129 false : read       xtbrestart
  129 false : replaced   charges
  129 false : replaced   wbo
  129 false : replaced   xtbtopo.mol
  129 false : replaced   xtbrestart

------------------------------------------------------------------------
 * finished run on 2025/06/25 at 12:06:36.268     
------------------------------------------------------------------------
 total:
 * wall-time:     0 d,  0 h,  0 min,  0.029 sec
 *  cpu-time:     0 d,  0 h,  0 min,  0.125 sec
 * ratio c/w:     4.310 speedup
 SCF:
 * wall-time:     0 d,  0 h,  0 min,  0.006 sec
 *  cpu-time:     0 d,  0 h,  0 min,  0.000 sec
 * ratio c/w:     0.000 speedup

normal termination of xtb
