      -----------------------------------------------------------      
     |                   =====================                   |     
     |                           x T B                           |     
     |                   =====================                   |     
     |                         S. Grimme                         |     
     |          Mulliken Center for Theoretical Chemistry        |     
     |                    University of Bonn                     |     
      -----------------------------------------------------------      

   * xtb version 6.7.1pre (5071a88) compiled by 'Marcel@Raven' on 2024-07-23

   xtb is free software: you can redistribute it and/or modify it under
   the terms of the GNU Lesser General Public License as published by
   the Free Software Foundation, either version 3 of the License, or
   (at your option) any later version.
   
   xtb is distributed in the hope that it will be useful,
   but WITHOUT ANY WARRANTY; without even the implied warranty of
   MERCHANTABILITY or FITNESS FOR A PARTICULAR PURPOSE.  See the
   GNU Lesser General Public License for more details.
   
   Cite this work as:
   * C. Bannwarth, E. Caldeweyher, S. Ehlert, A. Hansen, P. Pracht,
     J. Seibert, S. Spicher, S. Grimme, WIREs Comput. Mol. Sci., 2020, 11,
     e01493. DOI: 10.1002/wcms.1493
   
   for GFN2-xTB:
   * C. Bannwarth, S. Ehlert and S. Grimme., J. Chem. Theory Comput., 2019,
     15, 1652-1671. DOI: 10.1021/acs.jctc.8b01176
   for GFN1-xTB:
   * S. Grimme, C. Bannwarth, P. Shushkov, J. Chem. Theory Comput., 2017,
     13, 1989-2009. DOI: 10.1021/acs.jctc.7b00118
   for GFN0-xTB:
   * P. Pracht, E. Caldeweyher, S. Ehlert, S. Grimme, ChemRxiv, 2019, preprint.
     DOI: 10.26434/chemrxiv.8326202.v1
   for GFN-FF:
   * S. Spicher and S. Grimme, Angew. Chem. Int. Ed., 2020, 59, 15665-15673.
     DOI: 10.1002/anie.202004239
   
   for ALPB and GBSA implicit solvation:
   * S. Ehlert, M. Stahn, S. Spicher, S. Grimme, J. Chem. Theory Comput.,
     2021, 17, 4250-4261. DOI: 10.1021/acs.jctc.1c00471
   
   for ddCOSMO and CPCM-X implicit solvation:
   * M. Stahn, S. Ehlert, S. Grimme, J. Phys. Chem. A,
     2023, XX, XXXX-XXXX. DOI: 10.1021/acs.jpca.3c04382
   
   for DFT-D4:
   * E. Caldeweyher, C. Bannwarth and S. Grimme, J. Chem. Phys., 2017,
     147, 034112. DOI: 10.1063/1.4993215
   * E. Caldeweyher, S. Ehlert, A. Hansen, H. Neugebauer, S. Spicher,
     C. Bannwarth and S. Grimme, J. Chem. Phys., 2019, 150, 154122.
     DOI: 10.1063/1.5090222
   * E. Caldeweyher, J.-M. Mewes, S. Ehlert and S. Grimme, Phys. Chem. Chem. Phys.
     2020, 22, 8499-8512. DOI: 10.1039/D0CP00502A
   
   for sTDA-xTB:
   * S. Grimme and C. Bannwarth, J. Chem. Phys., 2016, 145, 054103.
     DOI: 10.1063/1.4959605
   
   in the mass-spec context:
   * V. Asgeirsson, C. Bauer and S. Grimme, Chem. Sci., 2017, 8, 4879.
     DOI: 10.1039/c7sc00601b
   * J. Koopman and S. Grimme, ACS Omega 2019, 4, 12, 15120-15133.
     DOI: 10.1021/acsomega.9b02011
   
   for metadynamics refer to:
   * S. Grimme, J. Chem. Theory Comput., 2019, 155, 2847-2862
     DOI: 10.1021/acs.jctc.9b00143
   
   for SPH calculations refer to:
   * S. Spicher and S. Grimme, J. Chem. Theory Comput., 2021, 17, 1701-1714
     DOI: 10.1021/acs.jctc.0c01306
   
   for ONIOM refer to:
   * C. Plett, A. Katbashev, S. Ehlert, S. Grimme, M. Bursch,
     Phys. Chem. Chem. Phys., 2023, 25, 17860-17868. DOI: 10.1039/D3CP02178E
   
   for DIPRO refer to:
   * J. Kohn, N. Gildemeister, S. Grimme, D. Fazzi, A. Hansen,
     J. Chem. Phys., 2023, just accepted.
   
   for PTB refer to:
   * S. Grimme, M. Mueller, A. Hansen, J. Chem. Phys., 2023, 158, 124111.
     DOI: 10.1063/5.0137838
   
   with help from (in alphabetical order)
   P. Atkinson, C. Bannwarth, F. Bohle, G. Brandenburg, E. Caldeweyher
   M. Checinski, S. Dohm, S. Ehlert, S. Ehrlich, I. Gerasimov, C. Hölzer
   A. Katbashev, J. Kohn, J. Koopman, C. Lavigne, S. Lehtola, F. März, M. Müller,
   F. Musil, H. Neugebauer, J. Pisarek, C. Plett, P. Pracht, F. Pultar,
   J. Seibert, P. Shushkov, S. Spicher, M. Stahn, M. Steiner, T. Strunk,
   J. Stückrath, T. Rose, and J. Unsleber
   
 * started run on 2025/06/25 at 12:07:26.013     
$$$$$$$$$$$$$$$$$$$$$$$$$$$$$$$$$$$$$$$$$$$$$$$$$$$$$$$$$$$$$$$$$$$$$$$$
 CONSTRAINTS & SCANS: DEBUG SECTION
$$$$$$$$$$$$$$$$$$$$$$$$$$$$$$$$$$$$$$$$$$$$$$$$$$$$$$$$$$$$$$$$$$$$$$$$
   ID    Z sym.   atoms
    1    6 C      1-5, 7
    2    8 O      6, 8-12
    3    1 H      13-24
$$$$$$$$$$$$$$$$$$$$$$$$$$$$$$$$$$$$$$$$$$$$$$$$$$$$$$$$$$$$$$$$$$$$$$$$

           -------------------------------------------------
          |                Calculation Setup                |
           -------------------------------------------------

          program call               : C:\Users\nkapa\Downloads\xtb-6.7.1pre-windows-x86_64\xtb-6.7.1\bin\xtb.EXE dft_tmp\mol_542.xyz --gfn2 --parallel 8 --verbose
          coordinate file            : dft_tmp\mol_542.xyz
          xtbhome directory          : C:\Users\nkapa\AppData\Roaming\SPB_Data
          path for xtb               : C:\Users\nkapa\Downloads\xtb-6.7.1pre-windows-x86_64\xtb-6.7.1\share\xtb
          xcontrol input file        : dft_tmp\mol_542.xyz
          omp threads                :                     8


           -------------------------------------------------
          |                 G F N 2 - x T B                 |
           -------------------------------------------------

        Reference                      10.1021/acs.jctc.8b01176
      * Hamiltonian:
        H0-scaling (s, p, d)           1.850000    2.230000    2.230000
        zeta-weighting                 0.500000
      * Dispersion:
        s8                             2.700000
        a1                             0.520000
        a2                             5.000000
        s9                             5.000000
      * Repulsion:
        kExp                           1.500000    1.000000
        rExp                           1.000000
      * Coulomb:
        alpha                          2.000000
        third order                    shell-resolved
        anisotropic                    true
        a3                             3.000000
        a5                             4.000000
        cn-shift                       1.200000
        cn-exp                         4.000000
        max-rad                        5.000000


          ...................................................
          :                      SETUP                      :
          :.................................................:
          :  # basis functions                  60          :
          :  # atomic orbitals                  60          :
          :  # shells                           36          :
          :  # electrons                        72          :
          :  max. iterations                   250          :
          :  Hamiltonian                  GFN2-xTB          :
          :  restarted?                      false          :
          :  GBSA solvation                  false          :
          :  PC potential                    false          :
          :  electronic temp.          300.0000000     K    :
          :  accuracy                    1.0000000          :
          :  -> integral cutoff          0.2500000E+02      :
          :  -> integral neglect         0.1000000E-07      :
          :  -> SCF convergence          0.1000000E-05 Eh   :
          :  -> wf. convergence          0.1000000E-03 e    :
          :  Broyden damping             0.4000000          :
          :  net charge                          0          :
          :  unpaired electrons                  0          :
          ...................................................

 iter      E             dE          RMSdq      gap      omega  full diag
   1    -43.5330188 -0.435330E+02  0.486E+00    3.86       0.0  T
   2    -43.5819736 -0.489548E-01  0.251E+00    3.18       1.0  T
   3    -43.5785906  0.338305E-02  0.135E+00    3.60       1.0  T
   4    -43.5903225 -0.117319E-01  0.224E-01    3.25       1.0  T
   5    -43.5906331 -0.310557E-03  0.920E-02    3.34       1.0  T
   6    -43.5906586 -0.254974E-04  0.304E-02    3.34       1.0  T
   7    -43.5906601 -0.154942E-05  0.973E-03    3.33       2.1  T
   8    -43.5906605 -0.398765E-06  0.324E-03    3.33       6.3  T
   9    -43.5906606 -0.306767E-07  0.106E-03    3.33      19.2  T
  10    -43.5906606 -0.561303E-08  0.353E-04    3.33      57.8  T
  11    -43.5906606 -0.541739E-09  0.128E-04    3.33     159.1  T

   *** convergence criteria satisfied after 11 iterations ***

         #    Occupation            Energy/Eh            Energy/eV
      -------------------------------------------------------------
         1        2.0000           -0.7185320             -19.5523
       ...           ...                  ...                  ...
        30        2.0000           -0.4602353             -12.5236
        31        2.0000           -0.4578103             -12.4577
        32        2.0000           -0.4337834             -11.8038
        33        2.0000           -0.4310812             -11.7303
        34        2.0000           -0.4288071             -11.6684
        35        2.0000           -0.4218400             -11.4788
        36        2.0000           -0.3929943             -10.6939 (HOMO)
        37                         -0.2704948              -7.3605 (LUMO)
        38                         -0.0222946              -0.6067
        39                          0.0030104               0.0819
        40                          0.0049640               0.1351
        41                          0.0337212               0.9176
       ...                                ...                  ...
        60                          0.5562072              15.1352
      -------------------------------------------------------------
                  HL-Gap            0.1224994 Eh            3.3334 eV
             Fermi-level           -0.3317446 Eh           -9.0272 eV

 SCC (total)                   0 d,  0 h,  0 min,  0.011 sec
 SCC setup                      ...        0 min,  0.000 sec (  0.000%)
 Dispersion                     ...        0 min,  0.000 sec (  0.000%)
 classical contributions        ...        0 min,  0.000 sec (  0.000%)
 integral evaluation            ...        0 min,  0.001 sec (  9.090%)
 iterations                     ...        0 min,  0.008 sec ( 72.727%)
 molecular gradient             ...        0 min,  0.002 sec ( 18.183%)
 printout                       ...        0 min,  0.000 sec (  0.000%)

         :::::::::::::::::::::::::::::::::::::::::::::::::::::
         ::                     SUMMARY                     ::
         :::::::::::::::::::::::::::::::::::::::::::::::::::::
         :: total energy             -43.293854280518 Eh    ::
         :: gradient norm              0.097404796448 Eh/a0 ::
         :: HOMO-LUMO gap              3.333379483553 eV    ::
         ::.................................................::
         :: HOMO orbital eigv.       -10.693918615207 eV    ::
         :: LUMO orbital eigv.        -7.360539131654 eV    ::
         ::.................................................::
         :: SCC energy               -43.590539843304 Eh    ::
         :: -> isotropic ES            0.138406756366 Eh    ::
         :: -> anisotropic ES          0.008703089909 Eh    ::
         :: -> anisotropic XC         -0.006215644264 Eh    ::
         :: -> dispersion             -0.017639322185 Eh    ::
         :: repulsion energy           0.296685562785 Eh    ::
         :: add. restraining           0.000000000000 Eh    ::
         :: total charge               0.000000000000 e     ::
         ::.................................................::
         :: atomisation energy         6.240027503700 Eh    ::
         :::::::::::::::::::::::::::::::::::::::::::::::::::::

           -------------------------------------------------
          |                Property Printout                |
           -------------------------------------------------

    * Orbital Energies and Occupations

         #    Occupation            Energy/Eh            Energy/eV
      -------------------------------------------------------------
         1        2.0000           -0.7185320             -19.5523
       ...           ...                  ...                  ...
        24        2.0000           -0.5189022             -14.1200
        25        2.0000           -0.5111902             -13.9102
        26        2.0000           -0.5017782             -13.6541
        27        2.0000           -0.4953410             -13.4789
        28        2.0000           -0.4878644             -13.2755
        29        2.0000           -0.4738031             -12.8928
        30        2.0000           -0.4602353             -12.5236
        31        2.0000           -0.4578103             -12.4577
        32        2.0000           -0.4337834             -11.8038
        33        2.0000           -0.4310812             -11.7303
        34        2.0000           -0.4288071             -11.6684
        35        2.0000           -0.4218400             -11.4788
        36        2.0000           -0.3929943             -10.6939 (HOMO)
        37                         -0.2704948              -7.3605 (LUMO)
        38                         -0.0222946              -0.6067
        39                          0.0030104               0.0819
        40                          0.0049640               0.1351
        41                          0.0337212               0.9176
        42                          0.0418138               1.1378
        43                          0.0490506               1.3347
        44                          0.0728158               1.9814
        45                          0.0775882               2.1113
        46                          0.0919256               2.5014
        47                          0.1008332               2.7438
       ...                                ...                  ...
        60                          0.5562072              15.1352
      -------------------------------------------------------------
                  HL-Gap            0.1224994 Eh            3.3334 eV
             Fermi-level           -0.3317446 Eh           -9.0272 eV

     #   Z          covCN         q      C6AA      α(0)
     1   6 C        3.668     0.070    19.657     6.357
     2   6 C        3.718     0.093    19.147     6.251
     3   6 C        3.718     0.096    19.113     6.245
     4   6 C        3.722     0.078    19.385     6.288
     5   6 C        2.811     0.213    23.491     7.941
     6   8 O        0.857    -0.308    19.926     5.985
     7   6 C        3.671     0.067    19.695     6.361
     8   8 O        1.652    -0.407    20.988     6.184
     9   8 O        1.652    -0.419    21.230     6.220
    10   8 O        1.651    -0.418    21.205     6.216
    11   8 O        1.652    -0.424    21.320     6.233
    12   8 O        1.652    -0.431    21.467     6.255
    13   1 H        0.921     0.039     2.461     2.454
    14   1 H        0.921     0.008     2.927     2.676
    15   1 H        0.921     0.076     2.022     2.224
    16   1 H        0.921     0.032     2.553     2.499
    17   1 H        0.922     0.052     2.291     2.367
    18   1 H        0.921     0.038     2.470     2.458
    19   1 H        0.921     0.052     2.295     2.369
    20   1 H        0.801     0.295     0.736     1.348
    21   1 H        0.801     0.307     0.700     1.314
    22   1 H        0.801     0.303     0.714     1.327
    23   1 H        0.801     0.292     0.748     1.359
    24   1 H        0.801     0.296     0.735     1.347

 Mol. C6AA /au·bohr⁶  :       4806.890875
 Mol. C8AA /au·bohr⁸  :     102359.414027
 Mol. α(0) /au        :        100.276114


Wiberg/Mayer (AO) data.
largest (>0.10) Wiberg bond orders for each atom

 ---------------------------------------------------------------------------
     #   Z sym  total        # sym  WBO       # sym  WBO       # sym  WBO
 ---------------------------------------------------------------------------
     1   6 C    3.960 --    12 O    1.006     2 C    0.979    14 H    0.968
                            13 H    0.967
     2   6 C    3.955 --    11 O    1.006     1 C    0.979     3 C    0.954
                            15 H    0.953
     3   6 C    3.962 --    10 O    1.015    16 H    0.959     2 C    0.954
                             4 C    0.936
     4   6 C    3.963 --     9 O    1.004    17 H    0.957     5 C    0.956
                             3 C    0.936
     5   6 C    3.930 --     6 O    1.888     7 C    0.989     4 C    0.956
     6   8 O    2.091 --     5 C    1.888
     7   6 C    3.970 --     8 O    1.015     5 C    0.989    18 H    0.946
                            19 H    0.942
     8   8 O    1.971 --     7 C    1.015    20 H    0.899
     9   8 O    1.983 --     4 C    1.004    21 H    0.884
    10   8 O    1.990 --     3 C    1.015    22 H    0.888
    11   8 O    1.979 --     2 C    1.006    23 H    0.896
    12   8 O    1.960 --     1 C    1.006    24 H    0.898
    13   1 H    0.998 --     1 C    0.967
    14   1 H    1.000 --     1 C    0.968
    15   1 H    0.994 --     2 C    0.953
    16   1 H    0.999 --     3 C    0.959
    17   1 H    0.997 --     4 C    0.957
    18   1 H    0.998 --     7 C    0.946
    19   1 H    0.997 --     7 C    0.942
    20   1 H    0.912 --     8 O    0.899
    21   1 H    0.906 --     9 O    0.884
    22   1 H    0.908 --    10 O    0.888
    23   1 H    0.915 --    11 O    0.896
    24   1 H    0.912 --    12 O    0.898
 ---------------------------------------------------------------------------

Topologies differ in total number of bonds
Writing topology from bond orders to xtbtopo.mol

molecular dipole:
                 x           y           z       tot (Debye)
 q only:        0.904      -1.658      -0.021
   full:        1.127      -2.329       0.045       6.577
molecular quadrupole (traceless):
                xx          xy          yy          xz          yz          zz
 q only:       -5.437       4.374       9.790       3.870      -3.741      -4.354
  q+dip:       -7.168       5.094      13.787       5.558      -6.655      -6.619
   full:       -7.895       4.858      13.421       5.719      -6.200      -5.527


           -------------------------------------------------
          | TOTAL ENERGY              -43.293854280518 Eh   |
          | GRADIENT NORM               0.097404796448 Eh/α |
          | HOMO-LUMO GAP               3.333379483553 eV   |
           -------------------------------------------------
########################################################################
[WARNING] Runtime exception occurred
-2- restart_readRestart: Dimension missmatch in restart file.
-1- restart_readRestart: Number of electron missmatch in restart file.
########################################################################

------------------------------------------------------------------------
 unit  open   action     filename
  129 false : read       dft_tmp\mol_542.xyz
  129 false : read       dft_tmp\mol_542.xyz
  129 false : read       dft_tmp\mol_542.xyz
  129 false : read       C:\Users\nkapa\Downloads\xtb-6.7.1pre-windows-x86_64\xtb-6.7.1\share\xtb\param_gfn2-xtb.txt
  129 false : read       xtbrestart
  129 false : replaced   charges
  129 false : replaced   wbo
  129 false : replaced   xtbtopo.mol
  129 false : replaced   xtbrestart

------------------------------------------------------------------------
 * finished run on 2025/06/25 at 12:07:26.054     
------------------------------------------------------------------------
 total:
 * wall-time:     0 d,  0 h,  0 min,  0.040 sec
 *  cpu-time:     0 d,  0 h,  0 min,  0.250 sec
 * ratio c/w:     6.250 speedup
 SCF:
 * wall-time:     0 d,  0 h,  0 min,  0.012 sec
 *  cpu-time:     0 d,  0 h,  0 min,  0.000 sec
 * ratio c/w:     0.000 speedup

normal termination of xtb
