18

C 2.550541 0.031619 0.604356
N 1.168959 -0.058447 0.150327
C 0.712889 -0.707078 -1.074633
C -0.828516 -0.527483 -1.094682
N -1.154547 0.212321 0.120080
C -2.489612 0.618934 0.538761
C 0.043617 0.465707 0.818339
O 0.101930 1.088323 1.912392
H 2.651309 -0.463007 1.592974
H 3.226569 -0.469389 -0.120331
H 2.844883 1.098135 0.694258
H 1.176664 -0.216687 -1.957489
H 0.982187 -1.785077 -1.054612
H -1.338819 -1.514651 -1.084751
H -1.144343 0.053698 -1.987704
H -2.533111 1.724816 0.624243
H -2.726719 0.163704 1.522996
H -3.243879 0.284563 -0.204526
