35

C 0.288294 2.414512 0.239980
N 0.112576 0.954302 0.085304
C -1.154029 0.396335 0.108403
C -2.336719 1.176030 0.052743
C -3.595067 0.571086 0.122444
C -3.705562 -0.814023 0.233500
C -2.558115 -1.605272 0.251169
C -1.292961 -1.012492 0.172376
N -0.194182 -1.799554 0.135608
C 1.045471 -1.276053 0.003914
C 2.146026 -2.135468 -0.087713
C 3.425858 -1.617792 -0.280237
C 3.610265 -0.241014 -0.396615
C 2.520257 0.628609 -0.297143
C 1.214358 0.129398 -0.062214
C -1.278741 -0.041045 0.081555
O -0.302668 0.914363 -0.246845
S 1.216435 0.172818 -0.145496
O 1.339931 -0.898102 -1.193418
O 2.278279 1.209316 -0.379227
O 1.441015 -0.499069 1.379096
H 0.272272 2.907987 -0.754403
H -0.487392 2.852968 0.899679
H 1.227190 2.659728 0.776153
H -2.313760 2.247668 -0.079154
H -4.489229 1.179931 0.081661
H -4.682754 -1.276402 0.286977
H -2.653599 -2.682569 0.311564
H 2.008130 -3.207984 -0.024259
H 4.273868 -2.285887 -0.358252
H 4.602050 0.155269 -0.573265
H 2.716755 1.680687 -0.441538
H -1.164692 -0.384729 1.132505
H -2.278674 0.430505 -0.008947
H -1.250883 -0.904058 -0.619223
