      -----------------------------------------------------------      
     |                   =====================                   |     
     |                           x T B                           |     
     |                   =====================                   |     
     |                         S. Grimme                         |     
     |          Mulliken Center for Theoretical Chemistry        |     
     |                    University of Bonn                     |     
      -----------------------------------------------------------      

   * xtb version 6.7.1pre (5071a88) compiled by 'Marcel@Raven' on 2024-07-23

   xtb is free software: you can redistribute it and/or modify it under
   the terms of the GNU Lesser General Public License as published by
   the Free Software Foundation, either version 3 of the License, or
   (at your option) any later version.
   
   xtb is distributed in the hope that it will be useful,
   but WITHOUT ANY WARRANTY; without even the implied warranty of
   MERCHANTABILITY or FITNESS FOR A PARTICULAR PURPOSE.  See the
   GNU Lesser General Public License for more details.
   
   Cite this work as:
   * C. Bannwarth, E. Caldeweyher, S. Ehlert, A. Hansen, P. Pracht,
     J. Seibert, S. Spicher, S. Grimme, WIREs Comput. Mol. Sci., 2020, 11,
     e01493. DOI: 10.1002/wcms.1493
   
   for GFN2-xTB:
   * C. Bannwarth, S. Ehlert and S. Grimme., J. Chem. Theory Comput., 2019,
     15, 1652-1671. DOI: 10.1021/acs.jctc.8b01176
   for GFN1-xTB:
   * S. Grimme, C. Bannwarth, P. Shushkov, J. Chem. Theory Comput., 2017,
     13, 1989-2009. DOI: 10.1021/acs.jctc.7b00118
   for GFN0-xTB:
   * P. Pracht, E. Caldeweyher, S. Ehlert, S. Grimme, ChemRxiv, 2019, preprint.
     DOI: 10.26434/chemrxiv.8326202.v1
   for GFN-FF:
   * S. Spicher and S. Grimme, Angew. Chem. Int. Ed., 2020, 59, 15665-15673.
     DOI: 10.1002/anie.202004239
   
   for ALPB and GBSA implicit solvation:
   * S. Ehlert, M. Stahn, S. Spicher, S. Grimme, J. Chem. Theory Comput.,
     2021, 17, 4250-4261. DOI: 10.1021/acs.jctc.1c00471
   
   for ddCOSMO and CPCM-X implicit solvation:
   * M. Stahn, S. Ehlert, S. Grimme, J. Phys. Chem. A,
     2023, XX, XXXX-XXXX. DOI: 10.1021/acs.jpca.3c04382
   
   for DFT-D4:
   * E. Caldeweyher, C. Bannwarth and S. Grimme, J. Chem. Phys., 2017,
     147, 034112. DOI: 10.1063/1.4993215
   * E. Caldeweyher, S. Ehlert, A. Hansen, H. Neugebauer, S. Spicher,
     C. Bannwarth and S. Grimme, J. Chem. Phys., 2019, 150, 154122.
     DOI: 10.1063/1.5090222
   * E. Caldeweyher, J.-M. Mewes, S. Ehlert and S. Grimme, Phys. Chem. Chem. Phys.
     2020, 22, 8499-8512. DOI: 10.1039/D0CP00502A
   
   for sTDA-xTB:
   * S. Grimme and C. Bannwarth, J. Chem. Phys., 2016, 145, 054103.
     DOI: 10.1063/1.4959605
   
   in the mass-spec context:
   * V. Asgeirsson, C. Bauer and S. Grimme, Chem. Sci., 2017, 8, 4879.
     DOI: 10.1039/c7sc00601b
   * J. Koopman and S. Grimme, ACS Omega 2019, 4, 12, 15120-15133.
     DOI: 10.1021/acsomega.9b02011
   
   for metadynamics refer to:
   * S. Grimme, J. Chem. Theory Comput., 2019, 155, 2847-2862
     DOI: 10.1021/acs.jctc.9b00143
   
   for SPH calculations refer to:
   * S. Spicher and S. Grimme, J. Chem. Theory Comput., 2021, 17, 1701-1714
     DOI: 10.1021/acs.jctc.0c01306
   
   for ONIOM refer to:
   * C. Plett, A. Katbashev, S. Ehlert, S. Grimme, M. Bursch,
     Phys. Chem. Chem. Phys., 2023, 25, 17860-17868. DOI: 10.1039/D3CP02178E
   
   for DIPRO refer to:
   * J. Kohn, N. Gildemeister, S. Grimme, D. Fazzi, A. Hansen,
     J. Chem. Phys., 2023, just accepted.
   
   for PTB refer to:
   * S. Grimme, M. Mueller, A. Hansen, J. Chem. Phys., 2023, 158, 124111.
     DOI: 10.1063/5.0137838
   
   with help from (in alphabetical order)
   P. Atkinson, C. Bannwarth, F. Bohle, G. Brandenburg, E. Caldeweyher
   M. Checinski, S. Dohm, S. Ehlert, S. Ehrlich, I. Gerasimov, C. Hölzer
   A. Katbashev, J. Kohn, J. Koopman, C. Lavigne, S. Lehtola, F. März, M. Müller,
   F. Musil, H. Neugebauer, J. Pisarek, C. Plett, P. Pracht, F. Pultar,
   J. Seibert, P. Shushkov, S. Spicher, M. Stahn, M. Steiner, T. Strunk,
   J. Stückrath, T. Rose, and J. Unsleber
   
 * started run on 2025/06/25 at 12:06:15.118     
$$$$$$$$$$$$$$$$$$$$$$$$$$$$$$$$$$$$$$$$$$$$$$$$$$$$$$$$$$$$$$$$$$$$$$$$
 CONSTRAINTS & SCANS: DEBUG SECTION
$$$$$$$$$$$$$$$$$$$$$$$$$$$$$$$$$$$$$$$$$$$$$$$$$$$$$$$$$$$$$$$$$$$$$$$$
   ID    Z sym.   atoms
    1    6 C      1-3, 5, 6
    2    7 N      4
    3    8 O      7, 8
    4    1 H      9-17
$$$$$$$$$$$$$$$$$$$$$$$$$$$$$$$$$$$$$$$$$$$$$$$$$$$$$$$$$$$$$$$$$$$$$$$$

           -------------------------------------------------
          |                Calculation Setup                |
           -------------------------------------------------

          program call               : C:\Users\nkapa\Downloads\xtb-6.7.1pre-windows-x86_64\xtb-6.7.1\bin\xtb.EXE dft_tmp\mol_61.xyz --gfn2 --parallel 8 --verbose
          coordinate file            : dft_tmp\mol_61.xyz
          xtbhome directory          : C:\Users\nkapa\AppData\Roaming\SPB_Data
          path for xtb               : C:\Users\nkapa\Downloads\xtb-6.7.1pre-windows-x86_64\xtb-6.7.1\share\xtb
          xcontrol input file        : dft_tmp\mol_61.xyz
          omp threads                :                     8


           -------------------------------------------------
          |                 G F N 2 - x T B                 |
           -------------------------------------------------

        Reference                      10.1021/acs.jctc.8b01176
      * Hamiltonian:
        H0-scaling (s, p, d)           1.850000    2.230000    2.230000
        zeta-weighting                 0.500000
      * Dispersion:
        s8                             2.700000
        a1                             0.520000
        a2                             5.000000
        s9                             5.000000
      * Repulsion:
        kExp                           1.500000    1.000000
        rExp                           1.000000
      * Coulomb:
        alpha                          2.000000
        third order                    shell-resolved
        anisotropic                    true
        a3                             3.000000
        a5                             4.000000
        cn-shift                       1.200000
        cn-exp                         4.000000
        max-rad                        5.000000


          ...................................................
          :                      SETUP                      :
          :.................................................:
          :  # basis functions                  41          :
          :  # atomic orbitals                  41          :
          :  # shells                           25          :
          :  # electrons                        46          :
          :  max. iterations                   250          :
          :  Hamiltonian                  GFN2-xTB          :
          :  restarted?                      false          :
          :  GBSA solvation                  false          :
          :  PC potential                    false          :
          :  electronic temp.          300.0000000     K    :
          :  accuracy                    1.0000000          :
          :  -> integral cutoff          0.2500000E+02      :
          :  -> integral neglect         0.1000000E-07      :
          :  -> SCF convergence          0.1000000E-05 Eh   :
          :  -> wf. convergence          0.1000000E-03 e    :
          :  Broyden damping             0.4000000          :
          :  net charge                          0          :
          :  unpaired electrons                  0          :
          ...................................................

 iter      E             dE          RMSdq      gap      omega  full diag
   1    -26.5207974 -0.265208E+02  0.403E+00    3.60       0.0  T
   2    -26.5665633 -0.457659E-01  0.208E+00    3.02       1.0  T
   3    -26.5700069 -0.344360E-02  0.132E+00    3.27       1.0  T
   4    -26.5753985 -0.539166E-02  0.198E-01    2.77       1.0  T
   5    -26.5757159 -0.317333E-03  0.771E-02    2.80       1.0  T
   6    -26.5757262 -0.103610E-04  0.277E-02    2.81       1.0  T
   7    -26.5757283 -0.205198E-05  0.812E-03    2.82       3.0  T
   8    -26.5757284 -0.133142E-06  0.353E-03    2.82       6.9  T
   9    -26.5757285 -0.258468E-07  0.118E-03    2.81      20.6  T
  10    -26.5757285 -0.326958E-08  0.423E-04    2.81      57.3  T
  11    -26.5757285 -0.642022E-09  0.135E-04    2.81     179.4  T

   *** convergence criteria satisfied after 11 iterations ***

         #    Occupation            Energy/Eh            Energy/eV
      -------------------------------------------------------------
         1        2.0000           -0.7315896             -19.9076
       ...           ...                  ...                  ...
        17        2.0000           -0.4706025             -12.8057
        18        2.0000           -0.4655140             -12.6673
        19        2.0000           -0.4598823             -12.5140
        20        2.0000           -0.4523640             -12.3095
        21        2.0000           -0.4406064             -11.9895
        22        2.0000           -0.4189894             -11.4013
        23        2.0000           -0.3652552              -9.9391 (HOMO)
        24                         -0.2618169              -7.1244 (LUMO)
        25                         -0.0445544              -1.2124
        26                          0.0146706               0.3992
        27                          0.0421497               1.1470
        28                          0.0529830               1.4417
       ...                                ...                  ...
        41                          0.4567780              12.4296
      -------------------------------------------------------------
                  HL-Gap            0.1034384 Eh            2.8147 eV
             Fermi-level           -0.3135361 Eh           -8.5318 eV

 SCC (total)                   0 d,  0 h,  0 min,  0.005 sec
 SCC setup                      ...        0 min,  0.001 sec ( 19.998%)
 Dispersion                     ...        0 min,  0.000 sec (  0.000%)
 classical contributions        ...        0 min,  0.000 sec (  0.000%)
 integral evaluation            ...        0 min,  0.000 sec (  0.000%)
 iterations                     ...        0 min,  0.004 sec ( 80.002%)
 molecular gradient             ...        0 min,  0.000 sec (  0.000%)
 printout                       ...        0 min,  0.000 sec (  0.000%)

         :::::::::::::::::::::::::::::::::::::::::::::::::::::
         ::                     SUMMARY                     ::
         :::::::::::::::::::::::::::::::::::::::::::::::::::::
         :: total energy             -26.341336208228 Eh    ::
         :: gradient norm              0.135397848694 Eh/a0 ::
         :: HOMO-LUMO gap              2.814701259855 eV    ::
         ::.................................................::
         :: HOMO orbital eigv.        -9.939100953141 eV    ::
         :: LUMO orbital eigv.        -7.124399693286 eV    ::
         ::.................................................::
         :: SCC energy               -26.575699170110 Eh    ::
         :: -> isotropic ES            0.058570450333 Eh    ::
         :: -> anisotropic ES          0.003194302662 Eh    ::
         :: -> anisotropic XC          0.010729014540 Eh    ::
         :: -> dispersion             -0.011652748255 Eh    ::
         :: repulsion energy           0.234362961883 Eh    ::
         :: add. restraining           0.000000000000 Eh    ::
         :: total charge              -0.000000000000 e     ::
         ::.................................................::
         :: atomisation energy         4.623331982640 Eh    ::
         :::::::::::::::::::::::::::::::::::::::::::::::::::::

           -------------------------------------------------
          |                Property Printout                |
           -------------------------------------------------

    * Orbital Energies and Occupations

         #    Occupation            Energy/Eh            Energy/eV
      -------------------------------------------------------------
         1        2.0000           -0.7315896             -19.9076
       ...           ...                  ...                  ...
        11        2.0000           -0.5534554             -15.0603
        12        2.0000           -0.5371805             -14.6174
        13        2.0000           -0.5249003             -14.2833
        14        2.0000           -0.4990630             -13.5802
        15        2.0000           -0.4915647             -13.3762
        16        2.0000           -0.4847677             -13.1912
        17        2.0000           -0.4706025             -12.8057
        18        2.0000           -0.4655140             -12.6673
        19        2.0000           -0.4598823             -12.5140
        20        2.0000           -0.4523640             -12.3095
        21        2.0000           -0.4406064             -11.9895
        22        2.0000           -0.4189894             -11.4013
        23        2.0000           -0.3652552              -9.9391 (HOMO)
        24                         -0.2618169              -7.1244 (LUMO)
        25                         -0.0445544              -1.2124
        26                          0.0146706               0.3992
        27                          0.0421497               1.1470
        28                          0.0529830               1.4417
        29                          0.0810646               2.2059
        30                          0.0967277               2.6321
        31                          0.1179983               3.2109
        32                          0.1291537               3.5145
        33                          0.1419344               3.8622
        34                          0.1534093               4.1745
       ...                                ...                  ...
        41                          0.4567780              12.4296
      -------------------------------------------------------------
                  HL-Gap            0.1034384 Eh            2.8147 eV
             Fermi-level           -0.3135361 Eh           -8.5318 eV

     #   Z          covCN         q      C6AA      α(0)
     1   6 C        3.816    -0.056    21.563     6.609
     2   6 C        3.819    -0.047    21.408     6.585
     3   6 C        3.822     0.038    19.917     6.351
     4   7 N        2.682    -0.242    26.309     7.618
     5   6 C        3.765     0.015    20.365     6.432
     6   6 C        2.689     0.336    21.290     7.551
     7   8 O        0.856    -0.418    22.045     6.295
     8   8 O        1.647    -0.387    20.612     6.129
     9   1 H        0.921     0.037     2.490     2.468
    10   1 H        0.921     0.048     2.348     2.396
    11   1 H        0.921     0.048     2.345     2.395
    12   1 H        0.921     0.041     2.438     2.442
    13   1 H        0.921     0.054     2.267     2.355
    14   1 H        0.857     0.139     1.479     1.905
    15   1 H        0.921     0.029     2.605     2.524
    16   1 H        0.921     0.039     2.468     2.457
    17   1 H        0.796     0.327     0.647     1.264

 Mol. C6AA /au·bohr⁶  :       2501.520607
 Mol. C8AA /au·bohr⁸  :      54243.863362
 Mol. α(0) /au        :         73.775429


Wiberg/Mayer (AO) data.
largest (>0.10) Wiberg bond orders for each atom

 ---------------------------------------------------------------------------
     #   Z sym  total        # sym  WBO       # sym  WBO       # sym  WBO
 ---------------------------------------------------------------------------
     1   6 C    3.996 --     2 C    1.007     5 C    1.002    10 H    0.979
                             9 H    0.978
     2   6 C    3.994 --     1 C    1.007    12 H    0.976    11 H    0.976
                             3 C    0.970
     3   6 C    3.985 --     4 N    0.995     6 C    0.972     2 C    0.970
                            13 H    0.959
     4   7 N    3.076 --     5 C    1.003     3 C    0.995    14 H    0.956
     5   6 C    3.984 --     4 N    1.003     1 C    1.002    15 H    0.979
                            16 H    0.972
     6   6 C    3.905 --     7 O    1.744     8 O    1.116     3 C    0.972
     7   8 O    2.012 --     6 C    1.744     8 O    0.171
     8   8 O    2.184 --     6 C    1.116    17 H    0.865     7 O    0.171
     9   1 H    0.998 --     1 C    0.978
    10   1 H    0.998 --     1 C    0.979
    11   1 H    0.998 --     2 C    0.976
    12   1 H    0.998 --     2 C    0.976
    13   1 H    0.997 --     3 C    0.959
    14   1 H    0.981 --     4 N    0.956
    15   1 H    0.999 --     5 C    0.979
    16   1 H    0.998 --     5 C    0.972
    17   1 H    0.893 --     8 O    0.865
 ---------------------------------------------------------------------------

Topologies differ in total number of bonds
Writing topology from bond orders to xtbtopo.mol

molecular dipole:
                 x           y           z       tot (Debye)
 q only:       -0.263       0.064      -0.533
   full:        0.109       0.241      -0.354       1.123
molecular quadrupole (traceless):
                xx          xy          yy          xz          yz          zz
 q only:        4.924       0.089      -0.900      -3.981      -2.061      -4.024
  q+dip:        7.843       0.055      -2.342      -2.460      -3.102      -5.500
   full:        7.448      -0.444      -1.500      -3.324      -3.542      -5.948


           -------------------------------------------------
          | TOTAL ENERGY              -26.341336208228 Eh   |
          | GRADIENT NORM               0.135397848694 Eh/α |
          | HOMO-LUMO GAP               2.814701259855 eV   |
           -------------------------------------------------
########################################################################
[WARNING] Runtime exception occurred
-2- restart_readRestart: Dimension missmatch in restart file.
-1- restart_readRestart: Number of electron missmatch in restart file.
########################################################################

------------------------------------------------------------------------
 unit  open   action     filename
  129 false : read       dft_tmp\mol_61.xyz
  129 false : read       dft_tmp\mol_61.xyz
  129 false : read       dft_tmp\mol_61.xyz
  129 false : read       C:\Users\nkapa\Downloads\xtb-6.7.1pre-windows-x86_64\xtb-6.7.1\share\xtb\param_gfn2-xtb.txt
  129 false : read       xtbrestart
  129 false : replaced   charges
  129 false : replaced   wbo
  129 false : replaced   xtbtopo.mol
  129 false : replaced   xtbrestart

------------------------------------------------------------------------
 * finished run on 2025/06/25 at 12:06:15.154     
------------------------------------------------------------------------
 total:
 * wall-time:     0 d,  0 h,  0 min,  0.035 sec
 *  cpu-time:     0 d,  0 h,  0 min,  0.141 sec
 * ratio c/w:     4.018 speedup
 SCF:
 * wall-time:     0 d,  0 h,  0 min,  0.006 sec
 *  cpu-time:     0 d,  0 h,  0 min,  0.000 sec
 * ratio c/w:     0.000 speedup

normal termination of xtb
