      -----------------------------------------------------------      
     |                   =====================                   |     
     |                           x T B                           |     
     |                   =====================                   |     
     |                         S. Grimme                         |     
     |          Mulliken Center for Theoretical Chemistry        |     
     |                    University of Bonn                     |     
      -----------------------------------------------------------      

   * xtb version 6.7.1pre (5071a88) compiled by 'Marcel@Raven' on 2024-07-23

   xtb is free software: you can redistribute it and/or modify it under
   the terms of the GNU Lesser General Public License as published by
   the Free Software Foundation, either version 3 of the License, or
   (at your option) any later version.
   
   xtb is distributed in the hope that it will be useful,
   but WITHOUT ANY WARRANTY; without even the implied warranty of
   MERCHANTABILITY or FITNESS FOR A PARTICULAR PURPOSE.  See the
   GNU Lesser General Public License for more details.
   
   Cite this work as:
   * C. Bannwarth, E. Caldeweyher, S. Ehlert, A. Hansen, P. Pracht,
     J. Seibert, S. Spicher, S. Grimme, WIREs Comput. Mol. Sci., 2020, 11,
     e01493. DOI: 10.1002/wcms.1493
   
   for GFN2-xTB:
   * C. Bannwarth, S. Ehlert and S. Grimme., J. Chem. Theory Comput., 2019,
     15, 1652-1671. DOI: 10.1021/acs.jctc.8b01176
   for GFN1-xTB:
   * S. Grimme, C. Bannwarth, P. Shushkov, J. Chem. Theory Comput., 2017,
     13, 1989-2009. DOI: 10.1021/acs.jctc.7b00118
   for GFN0-xTB:
   * P. Pracht, E. Caldeweyher, S. Ehlert, S. Grimme, ChemRxiv, 2019, preprint.
     DOI: 10.26434/chemrxiv.8326202.v1
   for GFN-FF:
   * S. Spicher and S. Grimme, Angew. Chem. Int. Ed., 2020, 59, 15665-15673.
     DOI: 10.1002/anie.202004239
   
   for ALPB and GBSA implicit solvation:
   * S. Ehlert, M. Stahn, S. Spicher, S. Grimme, J. Chem. Theory Comput.,
     2021, 17, 4250-4261. DOI: 10.1021/acs.jctc.1c00471
   
   for ddCOSMO and CPCM-X implicit solvation:
   * M. Stahn, S. Ehlert, S. Grimme, J. Phys. Chem. A,
     2023, XX, XXXX-XXXX. DOI: 10.1021/acs.jpca.3c04382
   
   for DFT-D4:
   * E. Caldeweyher, C. Bannwarth and S. Grimme, J. Chem. Phys., 2017,
     147, 034112. DOI: 10.1063/1.4993215
   * E. Caldeweyher, S. Ehlert, A. Hansen, H. Neugebauer, S. Spicher,
     C. Bannwarth and S. Grimme, J. Chem. Phys., 2019, 150, 154122.
     DOI: 10.1063/1.5090222
   * E. Caldeweyher, J.-M. Mewes, S. Ehlert and S. Grimme, Phys. Chem. Chem. Phys.
     2020, 22, 8499-8512. DOI: 10.1039/D0CP00502A
   
   for sTDA-xTB:
   * S. Grimme and C. Bannwarth, J. Chem. Phys., 2016, 145, 054103.
     DOI: 10.1063/1.4959605
   
   in the mass-spec context:
   * V. Asgeirsson, C. Bauer and S. Grimme, Chem. Sci., 2017, 8, 4879.
     DOI: 10.1039/c7sc00601b
   * J. Koopman and S. Grimme, ACS Omega 2019, 4, 12, 15120-15133.
     DOI: 10.1021/acsomega.9b02011
   
   for metadynamics refer to:
   * S. Grimme, J. Chem. Theory Comput., 2019, 155, 2847-2862
     DOI: 10.1021/acs.jctc.9b00143
   
   for SPH calculations refer to:
   * S. Spicher and S. Grimme, J. Chem. Theory Comput., 2021, 17, 1701-1714
     DOI: 10.1021/acs.jctc.0c01306
   
   for ONIOM refer to:
   * C. Plett, A. Katbashev, S. Ehlert, S. Grimme, M. Bursch,
     Phys. Chem. Chem. Phys., 2023, 25, 17860-17868. DOI: 10.1039/D3CP02178E
   
   for DIPRO refer to:
   * J. Kohn, N. Gildemeister, S. Grimme, D. Fazzi, A. Hansen,
     J. Chem. Phys., 2023, just accepted.
   
   for PTB refer to:
   * S. Grimme, M. Mueller, A. Hansen, J. Chem. Phys., 2023, 158, 124111.
     DOI: 10.1063/5.0137838
   
   with help from (in alphabetical order)
   P. Atkinson, C. Bannwarth, F. Bohle, G. Brandenburg, E. Caldeweyher
   M. Checinski, S. Dohm, S. Ehlert, S. Ehrlich, I. Gerasimov, C. Hölzer
   A. Katbashev, J. Kohn, J. Koopman, C. Lavigne, S. Lehtola, F. März, M. Müller,
   F. Musil, H. Neugebauer, J. Pisarek, C. Plett, P. Pracht, F. Pultar,
   J. Seibert, P. Shushkov, S. Spicher, M. Stahn, M. Steiner, T. Strunk,
   J. Stückrath, T. Rose, and J. Unsleber
   
 * started run on 2025/06/25 at 12:07:11.768     
$$$$$$$$$$$$$$$$$$$$$$$$$$$$$$$$$$$$$$$$$$$$$$$$$$$$$$$$$$$$$$$$$$$$$$$$
 CONSTRAINTS & SCANS: DEBUG SECTION
$$$$$$$$$$$$$$$$$$$$$$$$$$$$$$$$$$$$$$$$$$$$$$$$$$$$$$$$$$$$$$$$$$$$$$$$
   ID    Z sym.   atoms
    1    6 C      1, 2, 4, 5
    2    7 N      3
    3    8 O      6
    4    1 H      7-15
$$$$$$$$$$$$$$$$$$$$$$$$$$$$$$$$$$$$$$$$$$$$$$$$$$$$$$$$$$$$$$$$$$$$$$$$

           -------------------------------------------------
          |                Calculation Setup                |
           -------------------------------------------------

          program call               : C:\Users\nkapa\Downloads\xtb-6.7.1pre-windows-x86_64\xtb-6.7.1\bin\xtb.EXE dft_tmp\mol_466.xyz --gfn2 --parallel 8 --verbose
          coordinate file            : dft_tmp\mol_466.xyz
          xtbhome directory          : C:\Users\nkapa\AppData\Roaming\SPB_Data
          path for xtb               : C:\Users\nkapa\Downloads\xtb-6.7.1pre-windows-x86_64\xtb-6.7.1\share\xtb
          xcontrol input file        : dft_tmp\mol_466.xyz
          omp threads                :                     8


           -------------------------------------------------
          |                 G F N 2 - x T B                 |
           -------------------------------------------------

        Reference                      10.1021/acs.jctc.8b01176
      * Hamiltonian:
        H0-scaling (s, p, d)           1.850000    2.230000    2.230000
        zeta-weighting                 0.500000
      * Dispersion:
        s8                             2.700000
        a1                             0.520000
        a2                             5.000000
        s9                             5.000000
      * Repulsion:
        kExp                           1.500000    1.000000
        rExp                           1.000000
      * Coulomb:
        alpha                          2.000000
        third order                    shell-resolved
        anisotropic                    true
        a3                             3.000000
        a5                             4.000000
        cn-shift                       1.200000
        cn-exp                         4.000000
        max-rad                        5.000000

q/qsh data taken from xtbrestart
CAMM data taken from xtbrestart

          ...................................................
          :                      SETUP                      :
          :.................................................:
          :  # basis functions                  33          :
          :  # atomic orbitals                  33          :
          :  # shells                           21          :
          :  # electrons                        36          :
          :  max. iterations                   250          :
          :  Hamiltonian                  GFN2-xTB          :
          :  restarted?                       true          :
          :  GBSA solvation                  false          :
          :  PC potential                    false          :
          :  electronic temp.          300.0000000     K    :
          :  accuracy                    1.0000000          :
          :  -> integral cutoff          0.2500000E+02      :
          :  -> integral neglect         0.1000000E-07      :
          :  -> SCF convergence          0.1000000E-05 Eh   :
          :  -> wf. convergence          0.1000000E-03 e    :
          :  Broyden damping             0.4000000          :
          :  net charge                          0          :
          :  unpaired electrons                  0          :
          ...................................................

 iter      E             dE          RMSdq      gap      omega  full diag
   1    -20.1370209 -0.201370E+02  0.564E+00    8.32       0.0  T
   2    -20.3061777 -0.169157E+00  0.290E+00   10.24       1.0  T
   3    -20.3159178 -0.974014E-02  0.153E+00   10.12       1.0  T
   4    -20.3171970 -0.127917E-02  0.280E-01   10.06       1.0  T
   5    -20.3173143 -0.117314E-03  0.770E-02   10.07       1.0  T
   6    -20.3173213 -0.702622E-05  0.370E-02   10.07       1.0  T
   7    -20.3173232 -0.188028E-05  0.935E-03   10.07       2.8  T
   8    -20.3173233 -0.105311E-06  0.399E-03   10.07       6.5  T
   9    -20.3173233 -0.132133E-07  0.126E-03   10.07      20.5  T
  10    -20.3173233 -0.230826E-08  0.369E-04   10.07      70.0  T
  11    -20.3173233 -0.197609E-09  0.141E-04   10.07     183.3  T

   *** convergence criteria satisfied after 11 iterations ***

         #    Occupation            Energy/Eh            Energy/eV
      -------------------------------------------------------------
         1        2.0000           -0.7002144             -19.0538
       ...           ...                  ...                  ...
        12        2.0000           -0.4834620             -13.1557
        13        2.0000           -0.4772629             -12.9870
        14        2.0000           -0.4590127             -12.4904
        15        2.0000           -0.4524265             -12.3112
        16        2.0000           -0.4404377             -11.9849
        17        2.0000           -0.4195326             -11.4161
        18        2.0000           -0.3571615              -9.7189 (HOMO)
        19                          0.0130711               0.3557 (LUMO)
        20                          0.0359743               0.9789
        21                          0.0652114               1.7745
        22                          0.0718188               1.9543
        23                          0.0769408               2.0937
       ...                                ...                  ...
        33                          0.2681545               7.2969
      -------------------------------------------------------------
                  HL-Gap            0.3702327 Eh           10.0745 eV
             Fermi-level           -0.1720452 Eh           -4.6816 eV

 SCC (total)                   0 d,  0 h,  0 min,  0.003 sec
 SCC setup                      ...        0 min,  0.000 sec (  0.000%)
 Dispersion                     ...        0 min,  0.000 sec (  0.000%)
 classical contributions        ...        0 min,  0.000 sec (  0.000%)
 integral evaluation            ...        0 min,  0.001 sec ( 33.331%)
 iterations                     ...        0 min,  0.002 sec ( 66.669%)
 molecular gradient             ...        0 min,  0.000 sec (  0.000%)
 printout                       ...        0 min,  0.000 sec (  0.000%)

         :::::::::::::::::::::::::::::::::::::::::::::::::::::
         ::                     SUMMARY                     ::
         :::::::::::::::::::::::::::::::::::::::::::::::::::::
         :: total energy             -20.130566618900 Eh    ::
         :: gradient norm              0.044575964873 Eh/a0 ::
         :: HOMO-LUMO gap             10.074543997341 eV    ::
         ::.................................................::
         :: HOMO orbital eigv.        -9.718860127961 eV    ::
         :: LUMO orbital eigv.         0.355683869380 eV    ::
         ::.................................................::
         :: SCC energy               -20.317310934800 Eh    ::
         :: -> isotropic ES            0.025541505140 Eh    ::
         :: -> anisotropic ES          0.005522712482 Eh    ::
         :: -> anisotropic XC          0.009685884460 Eh    ::
         :: -> dispersion             -0.008913315413 Eh    ::
         :: repulsion energy           0.186744315901 Eh    ::
         :: add. restraining           0.000000000000 Eh    ::
         :: total charge               0.000000000000 e     ::
         ::.................................................::
         :: atomisation energy         3.801234661576 Eh    ::
         :::::::::::::::::::::::::::::::::::::::::::::::::::::

           -------------------------------------------------
          |                Property Printout                |
           -------------------------------------------------

    * Orbital Energies and Occupations

         #    Occupation            Energy/Eh            Energy/eV
      -------------------------------------------------------------
         1        2.0000           -0.7002144             -19.0538
       ...           ...                  ...                  ...
         6        2.0000           -0.5792544             -15.7623
         7        2.0000           -0.5539718             -15.0743
         8        2.0000           -0.5430013             -14.7758
         9        2.0000           -0.5339604             -14.5298
        10        2.0000           -0.5195704             -14.1382
        11        2.0000           -0.5185362             -14.1101
        12        2.0000           -0.4834620             -13.1557
        13        2.0000           -0.4772629             -12.9870
        14        2.0000           -0.4590127             -12.4904
        15        2.0000           -0.4524265             -12.3112
        16        2.0000           -0.4404377             -11.9849
        17        2.0000           -0.4195326             -11.4161
        18        2.0000           -0.3571615              -9.7189 (HOMO)
        19                          0.0130711               0.3557 (LUMO)
        20                          0.0359743               0.9789
        21                          0.0652114               1.7745
        22                          0.0718188               1.9543
        23                          0.0769408               2.0937
        24                          0.1010015               2.7484
        25                          0.1127857               3.0691
        26                          0.1344351               3.6582
        27                          0.1514516               4.1212
        28                          0.1681901               4.5767
        29                          0.1684992               4.5851
       ...                                ...                  ...
        33                          0.2681545               7.2969
      -------------------------------------------------------------
                  HL-Gap            0.3702327 Eh           10.0745 eV
             Fermi-level           -0.1720452 Eh           -4.6816 eV

     #   Z          covCN         q      C6AA      α(0)
     1   6 C        3.716     0.080    19.369     6.287
     2   6 C        3.738     0.004    20.598     6.476
     3   7 N        2.674    -0.253    26.568     7.655
     4   6 C        3.738     0.004    20.598     6.476
     5   6 C        3.716     0.080    19.369     6.287
     6   8 O        1.700    -0.312    19.197     5.916
     7   1 H        0.922     0.040     2.450     2.448
     8   1 H        0.921     0.013     2.837     2.634
     9   1 H        0.921     0.048     2.349     2.397
    10   1 H        0.921     0.032     2.557     2.501
    11   1 H        0.857     0.131     1.540     1.944
    12   1 H        0.921     0.032     2.557     2.501
    13   1 H        0.921     0.048     2.349     2.397
    14   1 H        0.922     0.040     2.450     2.448
    15   1 H        0.921     0.013     2.837     2.634

 Mol. C6AA /au·bohr⁶  :       1708.424786
 Mol. C8AA /au·bohr⁸  :      35493.174062
 Mol. α(0) /au        :         61.001112


Wiberg/Mayer (AO) data.
largest (>0.10) Wiberg bond orders for each atom

 ---------------------------------------------------------------------------
     #   Z sym  total        # sym  WBO       # sym  WBO       # sym  WBO
 ---------------------------------------------------------------------------
     1   6 C    3.956 --     2 C    0.989     6 O    0.988     7 H    0.970
                             8 H    0.965
     2   6 C    3.987 --     3 N    1.014     1 C    0.989    10 H    0.974
                             9 H    0.971
     3   7 N    3.063 --     4 C    1.014     2 C    1.014    11 H    0.957
     4   6 C    3.987 --     3 N    1.014     5 C    0.989    12 H    0.974
                            13 H    0.971
     5   6 C    3.956 --     4 C    0.989     6 O    0.988    14 H    0.970
                            15 H    0.965
     6   8 O    2.080 --     1 C    0.988     5 C    0.988
     7   1 H    0.998 --     1 C    0.970
     8   1 H    1.000 --     1 C    0.965
     9   1 H    0.998 --     2 C    0.971
    10   1 H    0.999 --     2 C    0.974
    11   1 H    0.983 --     3 N    0.957
    12   1 H    0.999 --     4 C    0.974
    13   1 H    0.998 --     4 C    0.971
    14   1 H    0.998 --     5 C    0.970
    15   1 H    1.000 --     5 C    0.965
 ---------------------------------------------------------------------------

Topologies differ in total number of bonds
Writing topology from bond orders to xtbtopo.mol

molecular dipole:
                 x           y           z       tot (Debye)
 q only:        0.291      -0.231      -0.214
   full:        0.134      -0.158      -0.549       1.491
molecular quadrupole (traceless):
                xx          xy          yy          xz          yz          zz
 q only:       -1.526       3.835       1.183      -0.232      -0.242       0.343
  q+dip:       -3.663       5.391       0.295      -0.771       0.483       3.367
   full:       -3.266       5.651       0.901      -0.980       0.425       2.365


           -------------------------------------------------
          | TOTAL ENERGY              -20.130566618900 Eh   |
          | GRADIENT NORM               0.044575964873 Eh/α |
          | HOMO-LUMO GAP              10.074543997341 eV   |
           -------------------------------------------------

------------------------------------------------------------------------
 unit  open   action     filename
  129 false : read       dft_tmp\mol_466.xyz
  129 false : read       dft_tmp\mol_466.xyz
  129 false : read       dft_tmp\mol_466.xyz
  129 false : read       C:\Users\nkapa\Downloads\xtb-6.7.1pre-windows-x86_64\xtb-6.7.1\share\xtb\param_gfn2-xtb.txt
  129 false : read       xtbrestart
  129 false : replaced   charges
  129 false : replaced   wbo
  129 false : replaced   xtbtopo.mol
  129 false : replaced   xtbrestart

------------------------------------------------------------------------
 * finished run on 2025/06/25 at 12:07:11.786     
------------------------------------------------------------------------
 total:
 * wall-time:     0 d,  0 h,  0 min,  0.017 sec
 *  cpu-time:     0 d,  0 h,  0 min,  0.125 sec
 * ratio c/w:     7.353 speedup
 SCF:
 * wall-time:     0 d,  0 h,  0 min,  0.003 sec
 *  cpu-time:     0 d,  0 h,  0 min,  0.000 sec
 * ratio c/w:     0.000 speedup

normal termination of xtb
