21

Na 0.000000 0.000000 0.000000
Na 0.000000 0.000000 0.000000
Na 0.000000 0.000000 0.000000
O 0.939228 -1.004107 -1.281071
C 0.161899 -0.385145 -0.278185
C 0.772582 1.016680 -0.015523
C 2.230757 0.948240 0.336065
O 3.188365 0.918511 -0.669949
O 2.591370 0.886910 1.540931
C -1.300354 -0.247431 -0.790035
C -2.220461 0.442250 0.176622
O -2.876690 -0.290463 1.157669
O -2.390833 1.688224 0.111788
C 0.193114 -1.228598 0.986010
O -0.032001 -0.646822 2.229082
O 0.363490 -2.475048 0.917809
H 0.504100 -1.859618 -1.537580
H 0.666412 1.642571 -0.928415
H 0.230098 1.539672 0.801736
H -1.717558 -1.255756 -1.004302
H -1.303518 0.309929 -1.752650
