17

C -1.541605 0.824402 0.336333
C -0.808482 -0.160440 -0.586834
C 0.508976 -0.692909 0.025353
C 1.507199 0.413681 0.249100
O 1.530634 1.044837 1.340545
O 2.383638 0.766772 -0.772311
N 0.250578 -1.409963 1.277015
O -0.535524 0.456553 -1.819152
H -0.947644 1.751950 0.475451
H -2.518172 1.101722 -0.114026
H -1.738010 0.362588 1.326712
H -1.478315 -1.035861 -0.758142
H 0.955604 -1.408205 -0.702869
H 3.051848 1.517739 -0.647070
H -0.376688 -2.221126 1.069738
H 1.151930 -1.822727 1.612134
H -1.395967 0.510987 -2.311977
