      -----------------------------------------------------------      
     |                   =====================                   |     
     |                           x T B                           |     
     |                   =====================                   |     
     |                         S. Grimme                         |     
     |          Mulliken Center for Theoretical Chemistry        |     
     |                    University of Bonn                     |     
      -----------------------------------------------------------      

   * xtb version 6.7.1pre (5071a88) compiled by 'Marcel@Raven' on 2024-07-23

   xtb is free software: you can redistribute it and/or modify it under
   the terms of the GNU Lesser General Public License as published by
   the Free Software Foundation, either version 3 of the License, or
   (at your option) any later version.
   
   xtb is distributed in the hope that it will be useful,
   but WITHOUT ANY WARRANTY; without even the implied warranty of
   MERCHANTABILITY or FITNESS FOR A PARTICULAR PURPOSE.  See the
   GNU Lesser General Public License for more details.
   
   Cite this work as:
   * C. Bannwarth, E. Caldeweyher, S. Ehlert, A. Hansen, P. Pracht,
     J. Seibert, S. Spicher, S. Grimme, WIREs Comput. Mol. Sci., 2020, 11,
     e01493. DOI: 10.1002/wcms.1493
   
   for GFN2-xTB:
   * C. Bannwarth, S. Ehlert and S. Grimme., J. Chem. Theory Comput., 2019,
     15, 1652-1671. DOI: 10.1021/acs.jctc.8b01176
   for GFN1-xTB:
   * S. Grimme, C. Bannwarth, P. Shushkov, J. Chem. Theory Comput., 2017,
     13, 1989-2009. DOI: 10.1021/acs.jctc.7b00118
   for GFN0-xTB:
   * P. Pracht, E. Caldeweyher, S. Ehlert, S. Grimme, ChemRxiv, 2019, preprint.
     DOI: 10.26434/chemrxiv.8326202.v1
   for GFN-FF:
   * S. Spicher and S. Grimme, Angew. Chem. Int. Ed., 2020, 59, 15665-15673.
     DOI: 10.1002/anie.202004239
   
   for ALPB and GBSA implicit solvation:
   * S. Ehlert, M. Stahn, S. Spicher, S. Grimme, J. Chem. Theory Comput.,
     2021, 17, 4250-4261. DOI: 10.1021/acs.jctc.1c00471
   
   for ddCOSMO and CPCM-X implicit solvation:
   * M. Stahn, S. Ehlert, S. Grimme, J. Phys. Chem. A,
     2023, XX, XXXX-XXXX. DOI: 10.1021/acs.jpca.3c04382
   
   for DFT-D4:
   * E. Caldeweyher, C. Bannwarth and S. Grimme, J. Chem. Phys., 2017,
     147, 034112. DOI: 10.1063/1.4993215
   * E. Caldeweyher, S. Ehlert, A. Hansen, H. Neugebauer, S. Spicher,
     C. Bannwarth and S. Grimme, J. Chem. Phys., 2019, 150, 154122.
     DOI: 10.1063/1.5090222
   * E. Caldeweyher, J.-M. Mewes, S. Ehlert and S. Grimme, Phys. Chem. Chem. Phys.
     2020, 22, 8499-8512. DOI: 10.1039/D0CP00502A
   
   for sTDA-xTB:
   * S. Grimme and C. Bannwarth, J. Chem. Phys., 2016, 145, 054103.
     DOI: 10.1063/1.4959605
   
   in the mass-spec context:
   * V. Asgeirsson, C. Bauer and S. Grimme, Chem. Sci., 2017, 8, 4879.
     DOI: 10.1039/c7sc00601b
   * J. Koopman and S. Grimme, ACS Omega 2019, 4, 12, 15120-15133.
     DOI: 10.1021/acsomega.9b02011
   
   for metadynamics refer to:
   * S. Grimme, J. Chem. Theory Comput., 2019, 155, 2847-2862
     DOI: 10.1021/acs.jctc.9b00143
   
   for SPH calculations refer to:
   * S. Spicher and S. Grimme, J. Chem. Theory Comput., 2021, 17, 1701-1714
     DOI: 10.1021/acs.jctc.0c01306
   
   for ONIOM refer to:
   * C. Plett, A. Katbashev, S. Ehlert, S. Grimme, M. Bursch,
     Phys. Chem. Chem. Phys., 2023, 25, 17860-17868. DOI: 10.1039/D3CP02178E
   
   for DIPRO refer to:
   * J. Kohn, N. Gildemeister, S. Grimme, D. Fazzi, A. Hansen,
     J. Chem. Phys., 2023, just accepted.
   
   for PTB refer to:
   * S. Grimme, M. Mueller, A. Hansen, J. Chem. Phys., 2023, 158, 124111.
     DOI: 10.1063/5.0137838
   
   with help from (in alphabetical order)
   P. Atkinson, C. Bannwarth, F. Bohle, G. Brandenburg, E. Caldeweyher
   M. Checinski, S. Dohm, S. Ehlert, S. Ehrlich, I. Gerasimov, C. Hölzer
   A. Katbashev, J. Kohn, J. Koopman, C. Lavigne, S. Lehtola, F. März, M. Müller,
   F. Musil, H. Neugebauer, J. Pisarek, C. Plett, P. Pracht, F. Pultar,
   J. Seibert, P. Shushkov, S. Spicher, M. Stahn, M. Steiner, T. Strunk,
   J. Stückrath, T. Rose, and J. Unsleber
   
 * started run on 2025/06/25 at 12:07:06.459     
$$$$$$$$$$$$$$$$$$$$$$$$$$$$$$$$$$$$$$$$$$$$$$$$$$$$$$$$$$$$$$$$$$$$$$$$
 CONSTRAINTS & SCANS: DEBUG SECTION
$$$$$$$$$$$$$$$$$$$$$$$$$$$$$$$$$$$$$$$$$$$$$$$$$$$$$$$$$$$$$$$$$$$$$$$$
   ID    Z sym.   atoms
    1    6 C      1, 3, 4, 6, 7, 9
    2    8 O      2, 5, 8
    3    1 H      10-23
$$$$$$$$$$$$$$$$$$$$$$$$$$$$$$$$$$$$$$$$$$$$$$$$$$$$$$$$$$$$$$$$$$$$$$$$

           -------------------------------------------------
          |                Calculation Setup                |
           -------------------------------------------------

          program call               : C:\Users\nkapa\Downloads\xtb-6.7.1pre-windows-x86_64\xtb-6.7.1\bin\xtb.EXE dft_tmp\mol_427.xyz --gfn2 --parallel 8 --verbose
          coordinate file            : dft_tmp\mol_427.xyz
          xtbhome directory          : C:\Users\nkapa\AppData\Roaming\SPB_Data
          path for xtb               : C:\Users\nkapa\Downloads\xtb-6.7.1pre-windows-x86_64\xtb-6.7.1\share\xtb
          xcontrol input file        : dft_tmp\mol_427.xyz
          omp threads                :                     8


           -------------------------------------------------
          |                 G F N 2 - x T B                 |
           -------------------------------------------------

        Reference                      10.1021/acs.jctc.8b01176
      * Hamiltonian:
        H0-scaling (s, p, d)           1.850000    2.230000    2.230000
        zeta-weighting                 0.500000
      * Dispersion:
        s8                             2.700000
        a1                             0.520000
        a2                             5.000000
        s9                             5.000000
      * Repulsion:
        kExp                           1.500000    1.000000
        rExp                           1.000000
      * Coulomb:
        alpha                          2.000000
        third order                    shell-resolved
        anisotropic                    true
        a3                             3.000000
        a5                             4.000000
        cn-shift                       1.200000
        cn-exp                         4.000000
        max-rad                        5.000000


          ...................................................
          :                      SETUP                      :
          :.................................................:
          :  # basis functions                  50          :
          :  # atomic orbitals                  50          :
          :  # shells                           32          :
          :  # electrons                        56          :
          :  max. iterations                   250          :
          :  Hamiltonian                  GFN2-xTB          :
          :  restarted?                      false          :
          :  GBSA solvation                  false          :
          :  PC potential                    false          :
          :  electronic temp.          300.0000000     K    :
          :  accuracy                    1.0000000          :
          :  -> integral cutoff          0.2500000E+02      :
          :  -> integral neglect         0.1000000E-07      :
          :  -> SCF convergence          0.1000000E-05 Eh   :
          :  -> wf. convergence          0.1000000E-03 e    :
          :  Broyden damping             0.4000000          :
          :  net charge                          0          :
          :  unpaired electrons                  0          :
          ...................................................

 iter      E             dE          RMSdq      gap      omega  full diag
   1    -32.3380421 -0.323380E+02  0.456E+00   10.64       0.0  T
   2    -32.4150811 -0.770389E-01  0.239E+00   10.27       1.0  T
   3    -32.4159411 -0.860053E-03  0.955E-01   10.37       1.0  T
   4    -32.4161824 -0.241289E-03  0.118E-01   10.42       1.0  T
   5    -32.4161831 -0.716359E-06  0.260E-02   10.44       1.0  T
   6    -32.4161893 -0.621620E-05  0.563E-03   10.43       3.7  T
   7    -32.4161894 -0.527818E-07  0.334E-03   10.43       6.2  T
   8    -32.4161894 -0.263627E-07  0.699E-04   10.43      29.8  T
   9    -32.4161894 -0.179765E-08  0.167E-04   10.43     124.6  T

   *** convergence criteria satisfied after 9 iterations ***

         #    Occupation            Energy/Eh            Energy/eV
      -------------------------------------------------------------
         1        2.0000           -0.7066275             -19.2283
       ...           ...                  ...                  ...
        22        2.0000           -0.4643903             -12.6367
        23        2.0000           -0.4612251             -12.5506
        24        2.0000           -0.4551038             -12.3840
        25        2.0000           -0.4489040             -12.2153
        26        2.0000           -0.4098042             -11.1513
        27        2.0000           -0.4061538             -11.0520
        28        2.0000           -0.4023327             -10.9480 (HOMO)
        29                         -0.0188703              -0.5135 (LUMO)
        30                          0.0336878               0.9167
        31                          0.0713496               1.9415
        32                          0.0745709               2.0292
        33                          0.0847001               2.3048
       ...                                ...                  ...
        50                          0.2512488               6.8368
      -------------------------------------------------------------
                  HL-Gap            0.3834624 Eh           10.4345 eV
             Fermi-level           -0.2106015 Eh           -5.7308 eV

 SCC (total)                   0 d,  0 h,  0 min,  0.005 sec
 SCC setup                      ...        0 min,  0.000 sec (  0.000%)
 Dispersion                     ...        0 min,  0.000 sec (  0.000%)
 classical contributions        ...        0 min,  0.000 sec (  0.000%)
 integral evaluation            ...        0 min,  0.000 sec (  0.000%)
 iterations                     ...        0 min,  0.004 sec ( 80.002%)
 molecular gradient             ...        0 min,  0.001 sec ( 19.998%)
 printout                       ...        0 min,  0.000 sec (  0.000%)

         :::::::::::::::::::::::::::::::::::::::::::::::::::::
         ::                     SUMMARY                     ::
         :::::::::::::::::::::::::::::::::::::::::::::::::::::
         :: total energy             -32.148105677871 Eh    ::
         :: gradient norm              0.051766397439 Eh/a0 ::
         :: HOMO-LUMO gap             10.434541742664 eV    ::
         ::.................................................::
         :: HOMO orbital eigv.       -10.948029550465 eV    ::
         :: LUMO orbital eigv.        -0.513487807801 eV    ::
         ::.................................................::
         :: SCC energy               -32.416281822765 Eh    ::
         :: -> isotropic ES            0.051148237963 Eh    ::
         :: -> anisotropic ES          0.006162048146 Eh    ::
         :: -> anisotropic XC          0.003868019270 Eh    ::
         :: -> dispersion             -0.012512527802 Eh    ::
         :: repulsion energy           0.268176144894 Eh    ::
         :: add. restraining           0.000000000000 Eh    ::
         :: total charge               0.000000000000 e     ::
         ::.................................................::
         :: atomisation energy         5.604691784281 Eh    ::
         :::::::::::::::::::::::::::::::::::::::::::::::::::::

           -------------------------------------------------
          |                Property Printout                |
           -------------------------------------------------

    * Orbital Energies and Occupations

         #    Occupation            Energy/Eh            Energy/eV
      -------------------------------------------------------------
         1        2.0000           -0.7066275             -19.2283
       ...           ...                  ...                  ...
        16        2.0000           -0.5295952             -14.4110
        17        2.0000           -0.5238485             -14.2546
        18        2.0000           -0.5046299             -13.7317
        19        2.0000           -0.5028349             -13.6828
        20        2.0000           -0.4739999             -12.8982
        21        2.0000           -0.4725837             -12.8597
        22        2.0000           -0.4643903             -12.6367
        23        2.0000           -0.4612251             -12.5506
        24        2.0000           -0.4551038             -12.3840
        25        2.0000           -0.4489040             -12.2153
        26        2.0000           -0.4098042             -11.1513
        27        2.0000           -0.4061538             -11.0520
        28        2.0000           -0.4023327             -10.9480 (HOMO)
        29                         -0.0188703              -0.5135 (LUMO)
        30                          0.0336878               0.9167
        31                          0.0713496               1.9415
        32                          0.0745709               2.0292
        33                          0.0847001               2.3048
        34                          0.0944401               2.5698
        35                          0.0982926               2.6747
        36                          0.1085607               2.9541
        37                          0.1117181               3.0400
        38                          0.1209179               3.2903
        39                          0.1267678               3.4495
       ...                                ...                  ...
        50                          0.2512488               6.8368
      -------------------------------------------------------------
                  HL-Gap            0.3834624 Eh           10.4345 eV
             Fermi-level           -0.2106015 Eh           -5.7308 eV

     #   Z          covCN         q      C6AA      α(0)
     1   6 C        3.668     0.042    20.121     6.432
     2   8 O        1.700    -0.309    19.149     5.908
     3   6 C        3.721     0.081    19.346     6.282
     4   6 C        3.719     0.082    19.330     6.280
     5   8 O        1.701    -0.320    19.348     5.939
     6   6 C        3.718     0.079    19.378     6.288
     7   6 C        3.710     0.073    19.487     6.309
     8   8 O        1.700    -0.307    19.111     5.902
     9   6 C        3.657     0.041    20.169     6.446
    10   1 H        0.921     0.032     2.562     2.503
    11   1 H        0.922     0.057     2.233     2.337
    12   1 H        0.921     0.031     2.568     2.506
    13   1 H        0.921     0.035     2.522     2.484
    14   1 H        0.921     0.036     2.510     2.478
    15   1 H        0.921     0.037     2.495     2.470
    16   1 H        0.921     0.035     2.521     2.483
    17   1 H        0.921     0.037     2.495     2.470
    18   1 H        0.921     0.025     2.657     2.549
    19   1 H        0.921     0.056     2.243     2.342
    20   1 H        0.920     0.039     2.461     2.453
    21   1 H        0.921     0.030     2.588     2.516
    22   1 H        0.921     0.033     2.545     2.495
    23   1 H        0.922     0.057     2.241     2.341

 Mol. C6AA /au·bohr⁶  :       3793.106778
 Mol. C8AA /au·bohr⁸  :      77258.640982
 Mol. α(0) /au        :         90.213942


Wiberg/Mayer (AO) data.
largest (>0.10) Wiberg bond orders for each atom

 ---------------------------------------------------------------------------
     #   Z sym  total        # sym  WBO       # sym  WBO       # sym  WBO
 ---------------------------------------------------------------------------
     1   6 C    3.949 --     2 O    0.996    11 H    0.980    12 H    0.976
                            10 H    0.976
     2   8 O    2.073 --     1 C    0.996     3 C    0.989
     3   6 C    3.955 --     4 C    0.996     2 O    0.989    13 H    0.965
                            14 H    0.965
     4   6 C    3.952 --     3 C    0.996     5 O    0.985    16 H    0.965
                            15 H    0.965
     5   8 O    2.067 --     4 C    0.985     6 C    0.983
     6   6 C    3.950 --     7 C    0.991     5 O    0.983    17 H    0.965
                            18 H    0.964
     7   6 C    3.953 --     6 C    0.991     8 O    0.989    19 H    0.968
                            20 H    0.967
     8   8 O    2.075 --     9 C    0.996     7 C    0.989
     9   6 C    3.951 --     8 O    0.996    23 H    0.979    21 H    0.977
                            22 H    0.977
    10   1 H    0.999 --     1 C    0.976
    11   1 H    0.996 --     1 C    0.980
    12   1 H    0.999 --     1 C    0.976
    13   1 H    0.999 --     3 C    0.965
    14   1 H    0.999 --     3 C    0.965
    15   1 H    0.999 --     4 C    0.965
    16   1 H    0.999 --     4 C    0.965
    17   1 H    0.999 --     6 C    0.965
    18   1 H    0.999 --     6 C    0.964
    19   1 H    0.997 --     7 C    0.968
    20   1 H    0.998 --     7 C    0.967
    21   1 H    0.999 --     9 C    0.977
    22   1 H    0.999 --     9 C    0.977
    23   1 H    0.997 --     9 C    0.979
 ---------------------------------------------------------------------------

Topologies differ in total number of bonds
Writing topology from bond orders to xtbtopo.mol

molecular dipole:
                 x           y           z       tot (Debye)
 q only:       -0.107       0.470       0.031
   full:       -0.162       0.640       0.051       1.682
molecular quadrupole (traceless):
                xx          xy          yy          xz          yz          zz
 q only:        6.121       2.244      -3.374       5.280      -0.510      -2.747
  q+dip:        1.917       4.048      -0.361       6.606       0.374      -1.557
   full:        3.958       3.676      -1.822       6.877      -0.132      -2.136


           -------------------------------------------------
          | TOTAL ENERGY              -32.148105677871 Eh   |
          | GRADIENT NORM               0.051766397439 Eh/α |
          | HOMO-LUMO GAP              10.434541742664 eV   |
           -------------------------------------------------
########################################################################
[WARNING] Runtime exception occurred
-2- restart_readRestart: Dimension missmatch in restart file.
-1- restart_readRestart: Number of electron missmatch in restart file.
########################################################################

------------------------------------------------------------------------
 unit  open   action     filename
  129 false : read       dft_tmp\mol_427.xyz
  129 false : read       dft_tmp\mol_427.xyz
  129 false : read       dft_tmp\mol_427.xyz
  129 false : read       C:\Users\nkapa\Downloads\xtb-6.7.1pre-windows-x86_64\xtb-6.7.1\share\xtb\param_gfn2-xtb.txt
  129 false : read       xtbrestart
  129 false : replaced   charges
  129 false : replaced   wbo
  129 false : replaced   xtbtopo.mol
  129 false : replaced   xtbrestart

------------------------------------------------------------------------
 * finished run on 2025/06/25 at 12:07:06.486     
------------------------------------------------------------------------
 total:
 * wall-time:     0 d,  0 h,  0 min,  0.026 sec
 *  cpu-time:     0 d,  0 h,  0 min,  0.125 sec
 * ratio c/w:     4.808 speedup
 SCF:
 * wall-time:     0 d,  0 h,  0 min,  0.005 sec
 *  cpu-time:     0 d,  0 h,  0 min,  0.000 sec
 * ratio c/w:     0.000 speedup

normal termination of xtb
