      -----------------------------------------------------------      
     |                   =====================                   |     
     |                           x T B                           |     
     |                   =====================                   |     
     |                         S. Grimme                         |     
     |          Mulliken Center for Theoretical Chemistry        |     
     |                    University of Bonn                     |     
      -----------------------------------------------------------      

   * xtb version 6.7.1pre (5071a88) compiled by 'Marcel@Raven' on 2024-07-23

   xtb is free software: you can redistribute it and/or modify it under
   the terms of the GNU Lesser General Public License as published by
   the Free Software Foundation, either version 3 of the License, or
   (at your option) any later version.
   
   xtb is distributed in the hope that it will be useful,
   but WITHOUT ANY WARRANTY; without even the implied warranty of
   MERCHANTABILITY or FITNESS FOR A PARTICULAR PURPOSE.  See the
   GNU Lesser General Public License for more details.
   
   Cite this work as:
   * C. Bannwarth, E. Caldeweyher, S. Ehlert, A. Hansen, P. Pracht,
     J. Seibert, S. Spicher, S. Grimme, WIREs Comput. Mol. Sci., 2020, 11,
     e01493. DOI: 10.1002/wcms.1493
   
   for GFN2-xTB:
   * C. Bannwarth, S. Ehlert and S. Grimme., J. Chem. Theory Comput., 2019,
     15, 1652-1671. DOI: 10.1021/acs.jctc.8b01176
   for GFN1-xTB:
   * S. Grimme, C. Bannwarth, P. Shushkov, J. Chem. Theory Comput., 2017,
     13, 1989-2009. DOI: 10.1021/acs.jctc.7b00118
   for GFN0-xTB:
   * P. Pracht, E. Caldeweyher, S. Ehlert, S. Grimme, ChemRxiv, 2019, preprint.
     DOI: 10.26434/chemrxiv.8326202.v1
   for GFN-FF:
   * S. Spicher and S. Grimme, Angew. Chem. Int. Ed., 2020, 59, 15665-15673.
     DOI: 10.1002/anie.202004239
   
   for ALPB and GBSA implicit solvation:
   * S. Ehlert, M. Stahn, S. Spicher, S. Grimme, J. Chem. Theory Comput.,
     2021, 17, 4250-4261. DOI: 10.1021/acs.jctc.1c00471
   
   for ddCOSMO and CPCM-X implicit solvation:
   * M. Stahn, S. Ehlert, S. Grimme, J. Phys. Chem. A,
     2023, XX, XXXX-XXXX. DOI: 10.1021/acs.jpca.3c04382
   
   for DFT-D4:
   * E. Caldeweyher, C. Bannwarth and S. Grimme, J. Chem. Phys., 2017,
     147, 034112. DOI: 10.1063/1.4993215
   * E. Caldeweyher, S. Ehlert, A. Hansen, H. Neugebauer, S. Spicher,
     C. Bannwarth and S. Grimme, J. Chem. Phys., 2019, 150, 154122.
     DOI: 10.1063/1.5090222
   * E. Caldeweyher, J.-M. Mewes, S. Ehlert and S. Grimme, Phys. Chem. Chem. Phys.
     2020, 22, 8499-8512. DOI: 10.1039/D0CP00502A
   
   for sTDA-xTB:
   * S. Grimme and C. Bannwarth, J. Chem. Phys., 2016, 145, 054103.
     DOI: 10.1063/1.4959605
   
   in the mass-spec context:
   * V. Asgeirsson, C. Bauer and S. Grimme, Chem. Sci., 2017, 8, 4879.
     DOI: 10.1039/c7sc00601b
   * J. Koopman and S. Grimme, ACS Omega 2019, 4, 12, 15120-15133.
     DOI: 10.1021/acsomega.9b02011
   
   for metadynamics refer to:
   * S. Grimme, J. Chem. Theory Comput., 2019, 155, 2847-2862
     DOI: 10.1021/acs.jctc.9b00143
   
   for SPH calculations refer to:
   * S. Spicher and S. Grimme, J. Chem. Theory Comput., 2021, 17, 1701-1714
     DOI: 10.1021/acs.jctc.0c01306
   
   for ONIOM refer to:
   * C. Plett, A. Katbashev, S. Ehlert, S. Grimme, M. Bursch,
     Phys. Chem. Chem. Phys., 2023, 25, 17860-17868. DOI: 10.1039/D3CP02178E
   
   for DIPRO refer to:
   * J. Kohn, N. Gildemeister, S. Grimme, D. Fazzi, A. Hansen,
     J. Chem. Phys., 2023, just accepted.
   
   for PTB refer to:
   * S. Grimme, M. Mueller, A. Hansen, J. Chem. Phys., 2023, 158, 124111.
     DOI: 10.1063/5.0137838
   
   with help from (in alphabetical order)
   P. Atkinson, C. Bannwarth, F. Bohle, G. Brandenburg, E. Caldeweyher
   M. Checinski, S. Dohm, S. Ehlert, S. Ehrlich, I. Gerasimov, C. Hölzer
   A. Katbashev, J. Kohn, J. Koopman, C. Lavigne, S. Lehtola, F. März, M. Müller,
   F. Musil, H. Neugebauer, J. Pisarek, C. Plett, P. Pracht, F. Pultar,
   J. Seibert, P. Shushkov, S. Spicher, M. Stahn, M. Steiner, T. Strunk,
   J. Stückrath, T. Rose, and J. Unsleber
   
 * started run on 2025/06/25 at 12:06:56.619     
$$$$$$$$$$$$$$$$$$$$$$$$$$$$$$$$$$$$$$$$$$$$$$$$$$$$$$$$$$$$$$$$$$$$$$$$
 CONSTRAINTS & SCANS: DEBUG SECTION
$$$$$$$$$$$$$$$$$$$$$$$$$$$$$$$$$$$$$$$$$$$$$$$$$$$$$$$$$$$$$$$$$$$$$$$$
   ID    Z sym.   atoms
    1    6 C      1, 2, 4-6, 9-11, 14
    2   15 P      3
    3    8 O      7, 8, 12, 13, 15, 16
    4    1 H      17-31
$$$$$$$$$$$$$$$$$$$$$$$$$$$$$$$$$$$$$$$$$$$$$$$$$$$$$$$$$$$$$$$$$$$$$$$$

           -------------------------------------------------
          |                Calculation Setup                |
           -------------------------------------------------

          program call               : C:\Users\nkapa\Downloads\xtb-6.7.1pre-windows-x86_64\xtb-6.7.1\bin\xtb.EXE dft_tmp\mol_351.xyz --gfn2 --parallel 8 --verbose
          coordinate file            : dft_tmp\mol_351.xyz
          xtbhome directory          : C:\Users\nkapa\AppData\Roaming\SPB_Data
          path for xtb               : C:\Users\nkapa\Downloads\xtb-6.7.1pre-windows-x86_64\xtb-6.7.1\share\xtb
          xcontrol input file        : dft_tmp\mol_351.xyz
          omp threads                :                     8


           -------------------------------------------------
          |                 G F N 2 - x T B                 |
           -------------------------------------------------

        Reference                      10.1021/acs.jctc.8b01176
      * Hamiltonian:
        H0-scaling (s, p, d)           1.850000    2.230000    2.230000
        zeta-weighting                 0.500000
      * Dispersion:
        s8                             2.700000
        a1                             0.520000
        a2                             5.000000
        s9                             5.000000
      * Repulsion:
        kExp                           1.500000    1.000000
        rExp                           1.000000
      * Coulomb:
        alpha                          2.000000
        third order                    shell-resolved
        anisotropic                    true
        a3                             3.000000
        a5                             4.000000
        cn-shift                       1.200000
        cn-exp                         4.000000
        max-rad                        5.000000


          ...................................................
          :                      SETUP                      :
          :.................................................:
          :  # basis functions                  85          :
          :  # atomic orbitals                  84          :
          :  # shells                           48          :
          :  # electrons                        92          :
          :  max. iterations                   250          :
          :  Hamiltonian                  GFN2-xTB          :
          :  restarted?                      false          :
          :  GBSA solvation                  false          :
          :  PC potential                    false          :
          :  electronic temp.          300.0000000     K    :
          :  accuracy                    1.0000000          :
          :  -> integral cutoff          0.2500000E+02      :
          :  -> integral neglect         0.1000000E-07      :
          :  -> SCF convergence          0.1000000E-05 Eh   :
          :  -> wf. convergence          0.1000000E-03 e    :
          :  Broyden damping             0.4000000          :
          :  net charge                          0          :
          :  unpaired electrons                  0          :
          ...................................................

 iter      E             dE          RMSdq      gap      omega  full diag
   1    -54.0905836 -0.540906E+02  0.500E+00    4.48       0.0  T
   2    -54.2079599 -0.117376E+00  0.267E+00    3.46       1.0  T
   3    -54.2197667 -0.118068E-01  0.164E+00    3.72       1.0  T
   4    -54.2373109 -0.175442E-01  0.230E-01    3.30       1.0  T
   5    -54.2378248 -0.513867E-03  0.106E-01    3.34       1.0  T
   6    -54.2378321 -0.728358E-05  0.314E-02    3.33       1.0  T
   7    -54.2378432 -0.111024E-04  0.115E-02    3.33       1.6  T
   8    -54.2378435 -0.372301E-06  0.451E-03    3.33       4.0  T
   9    -54.2378438 -0.230718E-06  0.204E-03    3.33       8.8  T
  10    -54.2378438 -0.101180E-07  0.105E-03    3.33      17.2  T
  11    -54.2378438 -0.149893E-07  0.375E-04    3.33      47.9  T
  12    -54.2378438 -0.725144E-09  0.144E-04    3.33     124.4  T

   *** convergence criteria satisfied after 12 iterations ***

         #    Occupation            Energy/Eh            Energy/eV
      -------------------------------------------------------------
         1        2.0000           -0.7366584             -20.0455
       ...           ...                  ...                  ...
        40        2.0000           -0.4599193             -12.5150
        41        2.0000           -0.4494825             -12.2310
        42        2.0000           -0.4477830             -12.1848
        43        2.0000           -0.4294296             -11.6854
        44        2.0000           -0.4239097             -11.5352
        45        2.0000           -0.4215062             -11.4698
        46        2.0000           -0.3891594             -10.5896 (HOMO)
        47                         -0.2666456              -7.2558 (LUMO)
        48                         -0.2644169              -7.1952
        49                         -0.2639000              -7.1811
        50                         -0.1810478              -4.9266
        51                         -0.1741087              -4.7377
       ...                                ...                  ...
        84                          0.7093499              19.3024
      -------------------------------------------------------------
                  HL-Gap            0.1225138 Eh            3.3338 eV
             Fermi-level           -0.3279025 Eh           -8.9227 eV

 SCC (total)                   0 d,  0 h,  0 min,  0.017 sec
 SCC setup                      ...        0 min,  0.000 sec (  0.000%)
 Dispersion                     ...        0 min,  0.000 sec (  0.000%)
 classical contributions        ...        0 min,  0.000 sec (  0.000%)
 integral evaluation            ...        0 min,  0.001 sec (  5.882%)
 iterations                     ...        0 min,  0.014 sec ( 82.353%)
 molecular gradient             ...        0 min,  0.002 sec ( 11.765%)
 printout                       ...        0 min,  0.000 sec (  0.000%)

         :::::::::::::::::::::::::::::::::::::::::::::::::::::
         ::                     SUMMARY                     ::
         :::::::::::::::::::::::::::::::::::::::::::::::::::::
         :: total energy             -53.822310448288 Eh    ::
         :: gradient norm              0.223185312936 Eh/a0 ::
         :: HOMO-LUMO gap              3.333771081014 eV    ::
         ::.................................................::
         :: HOMO orbital eigv.       -10.589566029940 eV    ::
         :: LUMO orbital eigv.        -7.255794948926 eV    ::
         ::.................................................::
         :: SCC energy               -54.237808294664 Eh    ::
         :: -> isotropic ES            0.156317991628 Eh    ::
         :: -> anisotropic ES         -0.000081302318 Eh    ::
         :: -> anisotropic XC          0.008481590068 Eh    ::
         :: -> dispersion             -0.025260431091 Eh    ::
         :: repulsion energy           0.415497846376 Eh    ::
         :: add. restraining           0.000000000000 Eh    ::
         :: total charge              -0.000000000000 e     ::
         ::.................................................::
         :: atomisation energy         8.487752588286 Eh    ::
         :::::::::::::::::::::::::::::::::::::::::::::::::::::

           -------------------------------------------------
          |                Property Printout                |
           -------------------------------------------------

    * Orbital Energies and Occupations

         #    Occupation            Energy/Eh            Energy/eV
      -------------------------------------------------------------
         1        2.0000           -0.7366584             -20.0455
       ...           ...                  ...                  ...
        34        2.0000           -0.4850146             -13.1979
        35        2.0000           -0.4768977             -12.9770
        36        2.0000           -0.4733326             -12.8800
        37        2.0000           -0.4717334             -12.8365
        38        2.0000           -0.4678392             -12.7306
        39        2.0000           -0.4609801             -12.5439
        40        2.0000           -0.4599193             -12.5150
        41        2.0000           -0.4494825             -12.2310
        42        2.0000           -0.4477830             -12.1848
        43        2.0000           -0.4294296             -11.6854
        44        2.0000           -0.4239097             -11.5352
        45        2.0000           -0.4215062             -11.4698
        46        2.0000           -0.3891594             -10.5896 (HOMO)
        47                         -0.2666456              -7.2558 (LUMO)
        48                         -0.2644169              -7.1952
        49                         -0.2639000              -7.1811
        50                         -0.1810478              -4.9266
        51                         -0.1741087              -4.7377
        52                         -0.0662478              -1.8027
        53                         -0.0458807              -1.2485
        54                         -0.0421225              -1.1462
        55                         -0.0073729              -0.2006
        56                          0.0303672               0.8263
        57                          0.0350230               0.9530
       ...                                ...                  ...
        84                          0.7093499              19.3024
      -------------------------------------------------------------
                  HL-Gap            0.1225138 Eh            3.3338 eV
             Fermi-level           -0.3279025 Eh           -8.9227 eV

     #   Z          covCN         q      C6AA      α(0)
     1   6 C        3.859    -0.074    21.881     6.653
     2   6 C        3.745    -0.057    21.674     6.641
     3  15 P        2.964    -0.062   163.041    22.940
     4   6 C        3.747    -0.055    21.640     6.635
     5   6 C        3.854    -0.073    21.859     6.649
     6   6 C        2.689     0.348    21.096     7.517
     7   8 O        0.856    -0.417    22.032     6.293
     8   8 O        1.647    -0.379    20.450     6.104
     9   6 C        3.745    -0.059    21.708     6.646
    10   6 C        3.863    -0.075    21.897     6.654
    11   6 C        2.688     0.347    21.101     7.518
    12   8 O        0.856    -0.418    22.037     6.294
    13   8 O        1.648    -0.381    20.492     6.111
    14   6 C        2.688     0.348    21.090     7.516
    15   8 O        0.856    -0.418    22.034     6.293
    16   8 O        1.648    -0.381    20.484     6.110
    17   1 H        0.921     0.072     2.068     2.249
    18   1 H        0.922     0.082     1.956     2.187
    19   1 H        0.922     0.052     2.292     2.367
    20   1 H        0.922     0.072     2.068     2.249
    21   1 H        0.923     0.060     2.194     2.316
    22   1 H        0.922     0.057     2.233     2.337
    23   1 H        0.922     0.067     2.117     2.276
    24   1 H        0.921     0.081     1.968     2.194
    25   1 H        0.796     0.328     0.644     1.261
    26   1 H        0.922     0.072     2.059     2.244
    27   1 H        0.922     0.054     2.275     2.359
    28   1 H        0.922     0.081     1.972     2.196
    29   1 H        0.922     0.072     2.067     2.248
    30   1 H        0.796     0.328     0.643     1.260
    31   1 H        0.796     0.328     0.643     1.260

 Mol. C6AA /au·bohr⁶  :      10302.797655
 Mol. C8AA /au·bohr⁸  :     260047.038744
 Mol. α(0) /au        :        153.578367


Wiberg/Mayer (AO) data.
largest (>0.10) Wiberg bond orders for each atom

 ---------------------------------------------------------------------------
     #   Z sym  total        # sym  WBO       # sym  WBO       # sym  WBO
 ---------------------------------------------------------------------------
     1   6 C    3.990 --    14 C    1.002     2 C    0.988    17 H    0.969
                            18 H    0.939
     2   6 C    3.986 --     3 P    1.023     1 C    0.988    19 H    0.957
                            20 H    0.948
     3  15 P    3.330 --     2 C    1.023     9 C    1.022     4 C    1.019
     4   6 C    3.988 --     3 P    1.019     5 C    0.980    21 H    0.953
                            22 H    0.952
     5   6 C    3.991 --     6 C    0.999     4 C    0.980    23 H    0.965
                            24 H    0.954
     6   6 C    3.910 --     7 O    1.748     8 O    1.122     5 C    0.999
     7   8 O    2.010 --     6 C    1.748     8 O    0.173
     8   8 O    2.191 --     6 C    1.122    25 H    0.866     7 O    0.173
     9   6 C    3.987 --     3 P    1.022    10 C    0.990    27 H    0.958
                            26 H    0.948
    10   6 C    3.990 --    11 C    1.002     9 C    0.990    29 H    0.969
                            28 H    0.937
    11   6 C    3.911 --    12 O    1.747    13 O    1.120    10 C    1.002
    12   8 O    2.010 --    11 C    1.747    13 O    0.172
    13   8 O    2.189 --    11 C    1.120    30 H    0.865    12 O    0.172
    14   6 C    3.910 --    15 O    1.748    16 O    1.120     1 C    1.002
    15   8 O    2.010 --    14 C    1.748    16 O    0.172
    16   8 O    2.189 --    14 C    1.120    31 H    0.866    15 O    0.172
    17   1 H    0.995 --     1 C    0.969
    18   1 H    0.993 --     1 C    0.939
    19   1 H    0.997 --     2 C    0.957
    20   1 H    0.995 --     2 C    0.948
    21   1 H    0.996 --     4 C    0.953
    22   1 H    0.997 --     4 C    0.952
    23   1 H    0.995 --     5 C    0.965
    24   1 H    0.993 --     5 C    0.954
    25   1 H    0.892 --     8 O    0.866
    26   1 H    0.995 --     9 C    0.948
    27   1 H    0.997 --     9 C    0.958
    28   1 H    0.993 --    10 C    0.937
    29   1 H    0.995 --    10 C    0.969
    30   1 H    0.891 --    13 O    0.865
    31   1 H    0.891 --    16 O    0.866
 ---------------------------------------------------------------------------

Topologies differ in total number of bonds
Writing topology from bond orders to xtbtopo.mol

molecular dipole:
                 x           y           z       tot (Debye)
 q only:       -0.722       0.428      -0.781
   full:       -0.712       0.465      -0.332       2.321
molecular quadrupole (traceless):
                xx          xy          yy          xz          yz          zz
 q only:        3.246       3.769       5.469      11.765      -1.445      -8.715
  q+dip:        7.331       4.411       8.327      12.229      -2.194     -15.658
   full:        7.691       4.864       9.645      11.363      -2.862     -17.336


           -------------------------------------------------
          | TOTAL ENERGY              -53.822310448288 Eh   |
          | GRADIENT NORM               0.223185312936 Eh/α |
          | HOMO-LUMO GAP               3.333771081014 eV   |
           -------------------------------------------------
########################################################################
[WARNING] Runtime exception occurred
-2- restart_readRestart: Dimension missmatch in restart file.
-1- restart_readRestart: Number of electron missmatch in restart file.
########################################################################

------------------------------------------------------------------------
 unit  open   action     filename
  129 false : read       dft_tmp\mol_351.xyz
  129 false : read       dft_tmp\mol_351.xyz
  129 false : read       dft_tmp\mol_351.xyz
  129 false : read       C:\Users\nkapa\Downloads\xtb-6.7.1pre-windows-x86_64\xtb-6.7.1\share\xtb\param_gfn2-xtb.txt
  129 false : read       xtbrestart
  129 false : replaced   charges
  129 false : replaced   wbo
  129 false : replaced   xtbtopo.mol
  129 false : replaced   xtbrestart

------------------------------------------------------------------------
 * finished run on 2025/06/25 at 12:06:56.663     
------------------------------------------------------------------------
 total:
 * wall-time:     0 d,  0 h,  0 min,  0.043 sec
 *  cpu-time:     0 d,  0 h,  0 min,  0.219 sec
 * ratio c/w:     5.087 speedup
 SCF:
 * wall-time:     0 d,  0 h,  0 min,  0.018 sec
 *  cpu-time:     0 d,  0 h,  0 min,  0.094 sec
 * ratio c/w:     5.208 speedup

normal termination of xtb
