20

C 3.484833 -0.391690 0.137538
O 2.470710 0.228198 -0.622261
C 1.383624 0.593017 0.207686
C 0.280859 -0.465454 0.129857
O -0.814071 -0.094675 0.947789
C -1.802725 0.596774 0.206773
C -2.857167 -0.381341 -0.314674
O -3.890929 0.314449 -0.956152
H 3.099519 -1.278453 0.687774
H 4.279450 -0.742943 -0.552163
H 3.946746 0.332783 0.843989
H 0.979449 1.555712 -0.169261
H 1.669041 0.769694 1.272679
H 0.681950 -1.424935 0.517632
H -0.001984 -0.651795 -0.933027
H -2.301642 1.314394 0.892173
H -1.383569 1.202001 -0.631179
H -3.286797 -0.944825 0.540620
H -2.396036 -1.116760 -1.011756
H -3.541262 0.585851 -1.844944
