      -----------------------------------------------------------      
     |                   =====================                   |     
     |                           x T B                           |     
     |                   =====================                   |     
     |                         S. Grimme                         |     
     |          Mulliken Center for Theoretical Chemistry        |     
     |                    University of Bonn                     |     
      -----------------------------------------------------------      

   * xtb version 6.7.1pre (5071a88) compiled by 'Marcel@Raven' on 2024-07-23

   xtb is free software: you can redistribute it and/or modify it under
   the terms of the GNU Lesser General Public License as published by
   the Free Software Foundation, either version 3 of the License, or
   (at your option) any later version.
   
   xtb is distributed in the hope that it will be useful,
   but WITHOUT ANY WARRANTY; without even the implied warranty of
   MERCHANTABILITY or FITNESS FOR A PARTICULAR PURPOSE.  See the
   GNU Lesser General Public License for more details.
   
   Cite this work as:
   * C. Bannwarth, E. Caldeweyher, S. Ehlert, A. Hansen, P. Pracht,
     J. Seibert, S. Spicher, S. Grimme, WIREs Comput. Mol. Sci., 2020, 11,
     e01493. DOI: 10.1002/wcms.1493
   
   for GFN2-xTB:
   * C. Bannwarth, S. Ehlert and S. Grimme., J. Chem. Theory Comput., 2019,
     15, 1652-1671. DOI: 10.1021/acs.jctc.8b01176
   for GFN1-xTB:
   * S. Grimme, C. Bannwarth, P. Shushkov, J. Chem. Theory Comput., 2017,
     13, 1989-2009. DOI: 10.1021/acs.jctc.7b00118
   for GFN0-xTB:
   * P. Pracht, E. Caldeweyher, S. Ehlert, S. Grimme, ChemRxiv, 2019, preprint.
     DOI: 10.26434/chemrxiv.8326202.v1
   for GFN-FF:
   * S. Spicher and S. Grimme, Angew. Chem. Int. Ed., 2020, 59, 15665-15673.
     DOI: 10.1002/anie.202004239
   
   for ALPB and GBSA implicit solvation:
   * S. Ehlert, M. Stahn, S. Spicher, S. Grimme, J. Chem. Theory Comput.,
     2021, 17, 4250-4261. DOI: 10.1021/acs.jctc.1c00471
   
   for ddCOSMO and CPCM-X implicit solvation:
   * M. Stahn, S. Ehlert, S. Grimme, J. Phys. Chem. A,
     2023, XX, XXXX-XXXX. DOI: 10.1021/acs.jpca.3c04382
   
   for DFT-D4:
   * E. Caldeweyher, C. Bannwarth and S. Grimme, J. Chem. Phys., 2017,
     147, 034112. DOI: 10.1063/1.4993215
   * E. Caldeweyher, S. Ehlert, A. Hansen, H. Neugebauer, S. Spicher,
     C. Bannwarth and S. Grimme, J. Chem. Phys., 2019, 150, 154122.
     DOI: 10.1063/1.5090222
   * E. Caldeweyher, J.-M. Mewes, S. Ehlert and S. Grimme, Phys. Chem. Chem. Phys.
     2020, 22, 8499-8512. DOI: 10.1039/D0CP00502A
   
   for sTDA-xTB:
   * S. Grimme and C. Bannwarth, J. Chem. Phys., 2016, 145, 054103.
     DOI: 10.1063/1.4959605
   
   in the mass-spec context:
   * V. Asgeirsson, C. Bauer and S. Grimme, Chem. Sci., 2017, 8, 4879.
     DOI: 10.1039/c7sc00601b
   * J. Koopman and S. Grimme, ACS Omega 2019, 4, 12, 15120-15133.
     DOI: 10.1021/acsomega.9b02011
   
   for metadynamics refer to:
   * S. Grimme, J. Chem. Theory Comput., 2019, 155, 2847-2862
     DOI: 10.1021/acs.jctc.9b00143
   
   for SPH calculations refer to:
   * S. Spicher and S. Grimme, J. Chem. Theory Comput., 2021, 17, 1701-1714
     DOI: 10.1021/acs.jctc.0c01306
   
   for ONIOM refer to:
   * C. Plett, A. Katbashev, S. Ehlert, S. Grimme, M. Bursch,
     Phys. Chem. Chem. Phys., 2023, 25, 17860-17868. DOI: 10.1039/D3CP02178E
   
   for DIPRO refer to:
   * J. Kohn, N. Gildemeister, S. Grimme, D. Fazzi, A. Hansen,
     J. Chem. Phys., 2023, just accepted.
   
   for PTB refer to:
   * S. Grimme, M. Mueller, A. Hansen, J. Chem. Phys., 2023, 158, 124111.
     DOI: 10.1063/5.0137838
   
   with help from (in alphabetical order)
   P. Atkinson, C. Bannwarth, F. Bohle, G. Brandenburg, E. Caldeweyher
   M. Checinski, S. Dohm, S. Ehlert, S. Ehrlich, I. Gerasimov, C. Hölzer
   A. Katbashev, J. Kohn, J. Koopman, C. Lavigne, S. Lehtola, F. März, M. Müller,
   F. Musil, H. Neugebauer, J. Pisarek, C. Plett, P. Pracht, F. Pultar,
   J. Seibert, P. Shushkov, S. Spicher, M. Stahn, M. Steiner, T. Strunk,
   J. Stückrath, T. Rose, and J. Unsleber
   
 * started run on 2025/06/25 at 12:06:07.515     
$$$$$$$$$$$$$$$$$$$$$$$$$$$$$$$$$$$$$$$$$$$$$$$$$$$$$$$$$$$$$$$$$$$$$$$$
 CONSTRAINTS & SCANS: DEBUG SECTION
$$$$$$$$$$$$$$$$$$$$$$$$$$$$$$$$$$$$$$$$$$$$$$$$$$$$$$$$$$$$$$$$$$$$$$$$
   ID    Z sym.   atoms
    1    6 C      1, 3, 4, 6
    2    7 N      2
    3    8 O      5
    4    9 F      7-9
    5    1 H      10-15
$$$$$$$$$$$$$$$$$$$$$$$$$$$$$$$$$$$$$$$$$$$$$$$$$$$$$$$$$$$$$$$$$$$$$$$$

           -------------------------------------------------
          |                Calculation Setup                |
           -------------------------------------------------

          program call               : C:\Users\nkapa\Downloads\xtb-6.7.1pre-windows-x86_64\xtb-6.7.1\bin\xtb.EXE dft_tmp\mol_17.xyz --gfn2 --parallel 8 --verbose
          coordinate file            : dft_tmp\mol_17.xyz
          xtbhome directory          : C:\Users\nkapa\AppData\Roaming\SPB_Data
          path for xtb               : C:\Users\nkapa\Downloads\xtb-6.7.1pre-windows-x86_64\xtb-6.7.1\share\xtb
          xcontrol input file        : dft_tmp\mol_17.xyz
          omp threads                :                     8


           -------------------------------------------------
          |                 G F N 2 - x T B                 |
           -------------------------------------------------

        Reference                      10.1021/acs.jctc.8b01176
      * Hamiltonian:
        H0-scaling (s, p, d)           1.850000    2.230000    2.230000
        zeta-weighting                 0.500000
      * Dispersion:
        s8                             2.700000
        a1                             0.520000
        a2                             5.000000
        s9                             5.000000
      * Repulsion:
        kExp                           1.500000    1.000000
        rExp                           1.000000
      * Coulomb:
        alpha                          2.000000
        third order                    shell-resolved
        anisotropic                    true
        a3                             3.000000
        a5                             4.000000
        cn-shift                       1.200000
        cn-exp                         4.000000
        max-rad                        5.000000


          ...................................................
          :                      SETUP                      :
          :.................................................:
          :  # basis functions                  42          :
          :  # atomic orbitals                  42          :
          :  # shells                           24          :
          :  # electrons                        54          :
          :  max. iterations                   250          :
          :  Hamiltonian                  GFN2-xTB          :
          :  restarted?                      false          :
          :  GBSA solvation                  false          :
          :  PC potential                    false          :
          :  electronic temp.          300.0000000     K    :
          :  accuracy                    1.0000000          :
          :  -> integral cutoff          0.2500000E+02      :
          :  -> integral neglect         0.1000000E-07      :
          :  -> SCF convergence          0.1000000E-05 Eh   :
          :  -> wf. convergence          0.1000000E-03 e    :
          :  Broyden damping             0.4000000          :
          :  net charge                          0          :
          :  unpaired electrons                  0          :
          ...................................................

 iter      E             dE          RMSdq      gap      omega  full diag
   1    -32.8793436 -0.328793E+02  0.440E+00    3.66       0.0  T
   2    -32.9664532 -0.871096E-01  0.239E+00    3.86       1.0  T
   3    -32.9763366 -0.988337E-02  0.140E+00    3.59       1.0  T
   4    -32.9782045 -0.186792E-02  0.222E-01    3.53       1.0  T
   5    -32.9785786 -0.374149E-03  0.889E-02    3.54       1.0  T
   6    -32.9785888 -0.101855E-04  0.342E-02    3.53       1.0  T
   7    -32.9785914 -0.259795E-05  0.131E-02    3.55       2.0  T
   8    -32.9785923 -0.910888E-06  0.517E-03    3.54       5.0  T
   9    -32.9785924 -0.972915E-07  0.180E-03    3.54      14.3  T
  10    -32.9785924 -0.135534E-07  0.681E-04    3.54      37.9  T
  11    -32.9785924 -0.156184E-08  0.262E-04    3.54      98.6  T

   *** convergence criteria satisfied after 11 iterations ***

         #    Occupation            Energy/Eh            Energy/eV
      -------------------------------------------------------------
         1        2.0000           -0.8856562             -24.0999
       ...           ...                  ...                  ...
        21        2.0000           -0.5280907             -14.3701
        22        2.0000           -0.5180222             -14.0961
        23        2.0000           -0.5152470             -14.0206
        24        2.0000           -0.5124682             -13.9450
        25        2.0000           -0.4941943             -13.4477
        26        2.0000           -0.4411341             -12.0039
        27        2.0000           -0.4200968             -11.4314 (HOMO)
        28                         -0.2898905              -7.8883 (LUMO)
        29                         -0.1067062              -2.9036
        30                         -0.0342757              -0.9327
        31                         -0.0181376              -0.4935
        32                          0.0233094               0.6343
       ...                                ...                  ...
        42                          0.4248665              11.5612
      -------------------------------------------------------------
                  HL-Gap            0.1302064 Eh            3.5431 eV
             Fermi-level           -0.3549936 Eh           -9.6599 eV

 SCC (total)                   0 d,  0 h,  0 min,  0.006 sec
 SCC setup                      ...        0 min,  0.000 sec (  0.000%)
 Dispersion                     ...        0 min,  0.000 sec (  0.000%)
 classical contributions        ...        0 min,  0.000 sec (  0.000%)
 integral evaluation            ...        0 min,  0.001 sec ( 16.665%)
 iterations                     ...        0 min,  0.004 sec ( 66.665%)
 molecular gradient             ...        0 min,  0.001 sec ( 16.669%)
 printout                       ...        0 min,  0.000 sec (  0.000%)

         :::::::::::::::::::::::::::::::::::::::::::::::::::::
         ::                     SUMMARY                     ::
         :::::::::::::::::::::::::::::::::::::::::::::::::::::
         :: total energy             -32.798130264347 Eh    ::
         :: gradient norm              0.142533475884 Eh/a0 ::
         :: HOMO-LUMO gap              3.543095478330 eV    ::
         ::.................................................::
         :: HOMO orbital eigv.       -11.431416203845 eV    ::
         :: LUMO orbital eigv.        -7.888320725515 eV    ::
         ::.................................................::
         :: SCC energy               -32.978564333011 Eh    ::
         :: -> isotropic ES            0.072047864958 Eh    ::
         :: -> anisotropic ES          0.002763959509 Eh    ::
         :: -> anisotropic XC         -0.010075213794 Eh    ::
         :: -> dispersion             -0.009561529674 Eh    ::
         :: repulsion energy           0.180434068664 Eh    ::
         :: add. restraining           0.000000000000 Eh    ::
         :: total charge              -0.000000000000 e     ::
         ::.................................................::
         :: atomisation energy         3.796669146144 Eh    ::
         :::::::::::::::::::::::::::::::::::::::::::::::::::::

           -------------------------------------------------
          |                Property Printout                |
           -------------------------------------------------

    * Orbital Energies and Occupations

         #    Occupation            Energy/Eh            Energy/eV
      -------------------------------------------------------------
         1        2.0000           -0.8856562             -24.0999
       ...           ...                  ...                  ...
        15        2.0000           -0.5586095             -15.2005
        16        2.0000           -0.5569152             -15.1544
        17        2.0000           -0.5534864             -15.0611
        18        2.0000           -0.5509878             -14.9931
        19        2.0000           -0.5407346             -14.7141
        20        2.0000           -0.5385834             -14.6556
        21        2.0000           -0.5280907             -14.3701
        22        2.0000           -0.5180222             -14.0961
        23        2.0000           -0.5152470             -14.0206
        24        2.0000           -0.5124682             -13.9450
        25        2.0000           -0.4941943             -13.4477
        26        2.0000           -0.4411341             -12.0039
        27        2.0000           -0.4200968             -11.4314 (HOMO)
        28                         -0.2898905              -7.8883 (LUMO)
        29                         -0.1067062              -2.9036
        30                         -0.0342757              -0.9327
        31                         -0.0181376              -0.4935
        32                          0.0233094               0.6343
        33                          0.0303994               0.8272
        34                          0.0461272               1.2552
        35                          0.0837603               2.2792
        36                          0.1153244               3.1381
        37                          0.1362840               3.7085
        38                          0.1478370               4.0228
       ...                                ...                  ...
        42                          0.4248665              11.5612
      -------------------------------------------------------------
                  HL-Gap            0.1302064 Eh            3.5431 eV
             Fermi-level           -0.3549936 Eh           -9.6599 eV

     #   Z          covCN         q      C6AA      α(0)
     1   6 C        3.676    -0.058    21.849     6.697
     2   7 N        2.721    -0.072    22.631     7.065
     3   6 C        3.677    -0.048    21.663     6.668
     4   6 C        2.749     0.222    23.321     7.907
     5   8 O        0.856    -0.375    21.179     6.170
     6   6 C        3.325     0.464    17.732     6.694
     7   9 F        0.784    -0.198    11.220     3.957
     8   9 F        0.784    -0.173    10.965     3.911
     9   9 F        0.784    -0.198    11.220     3.957
    10   1 H        0.922     0.071     2.080     2.256
    11   1 H        0.922     0.072     2.064     2.247
    12   1 H        0.922     0.071     2.080     2.256
    13   1 H        0.922     0.077     2.010     2.217
    14   1 H        0.922     0.068     2.104     2.269
    15   1 H        0.922     0.077     2.010     2.217

 Mol. C6AA /au·bohr⁶  :       2122.962535
 Mol. C8AA /au·bohr⁸  :      44946.791662
 Mol. α(0) /au        :         66.488396


Wiberg/Mayer (AO) data.
largest (>0.10) Wiberg bond orders for each atom

 ---------------------------------------------------------------------------
     #   Z sym  total        # sym  WBO       # sym  WBO       # sym  WBO
 ---------------------------------------------------------------------------
     1   6 C    3.960 --     2 N    0.998    11 H    0.978    12 H    0.974
                            10 H    0.974
     2   7 N    3.513 --     4 C    1.240     1 C    0.998     3 C    0.994
                             5 O    0.241
     3   6 C    3.955 --     2 N    0.994    14 H    0.979    13 H    0.971
                            15 H    0.971
     4   6 C    3.968 --     5 O    1.686     2 N    1.240     6 C    0.926
     5   8 O    2.039 --     4 C    1.686     2 N    0.241
     6   6 C    3.841 --     8 F    0.968     7 F    0.944     9 F    0.944
                             4 C    0.926
     7   9 F    1.076 --     6 C    0.944
     8   9 F    1.095 --     6 C    0.968
     9   9 F    1.076 --     6 C    0.944
    10   1 H    0.995 --     1 C    0.974
    11   1 H    0.995 --     1 C    0.978
    12   1 H    0.995 --     1 C    0.974
    13   1 H    0.994 --     3 C    0.971
    14   1 H    0.995 --     3 C    0.979
    15   1 H    0.994 --     3 C    0.971
 ---------------------------------------------------------------------------

Topologies differ in total number of bonds
Writing topology from bond orders to xtbtopo.mol

molecular dipole:
                 x           y           z       tot (Debye)
 q only:       -2.112       0.310       0.113
   full:       -2.153       0.495       0.216       5.643
molecular quadrupole (traceless):
                xx          xy          yy          xz          yz          zz
 q only:       -2.043       2.220       0.512       1.140      -0.724       1.531
  q+dip:       -1.313       3.583      -0.592       1.904      -1.880       1.906
   full:       -1.982       3.443      -0.294       1.792      -1.949       2.276


           -------------------------------------------------
          | TOTAL ENERGY              -32.798130264347 Eh   |
          | GRADIENT NORM               0.142533475884 Eh/α |
          | HOMO-LUMO GAP               3.543095478330 eV   |
           -------------------------------------------------
########################################################################
[WARNING] Runtime exception occurred
-2- restart_readRestart: Dimension missmatch in restart file.
-1- restart_readRestart: Number of electron missmatch in restart file.
########################################################################

------------------------------------------------------------------------
 unit  open   action     filename
  129 false : read       dft_tmp\mol_17.xyz
  129 false : read       dft_tmp\mol_17.xyz
  129 false : read       dft_tmp\mol_17.xyz
  129 false : read       C:\Users\nkapa\Downloads\xtb-6.7.1pre-windows-x86_64\xtb-6.7.1\share\xtb\param_gfn2-xtb.txt
  129 false : read       xtbrestart
  129 false : replaced   charges
  129 false : replaced   wbo
  129 false : replaced   xtbtopo.mol
  129 false : replaced   xtbrestart

------------------------------------------------------------------------
 * finished run on 2025/06/25 at 12:06:07.546     
------------------------------------------------------------------------
 total:
 * wall-time:     0 d,  0 h,  0 min,  0.031 sec
 *  cpu-time:     0 d,  0 h,  0 min,  0.125 sec
 * ratio c/w:     4.032 speedup
 SCF:
 * wall-time:     0 d,  0 h,  0 min,  0.006 sec
 *  cpu-time:     0 d,  0 h,  0 min,  0.016 sec
 * ratio c/w:     2.604 speedup

normal termination of xtb
