      -----------------------------------------------------------      
     |                   =====================                   |     
     |                           x T B                           |     
     |                   =====================                   |     
     |                         S. Grimme                         |     
     |          Mulliken Center for Theoretical Chemistry        |     
     |                    University of Bonn                     |     
      -----------------------------------------------------------      

   * xtb version 6.7.1pre (5071a88) compiled by 'Marcel@Raven' on 2024-07-23

   xtb is free software: you can redistribute it and/or modify it under
   the terms of the GNU Lesser General Public License as published by
   the Free Software Foundation, either version 3 of the License, or
   (at your option) any later version.
   
   xtb is distributed in the hope that it will be useful,
   but WITHOUT ANY WARRANTY; without even the implied warranty of
   MERCHANTABILITY or FITNESS FOR A PARTICULAR PURPOSE.  See the
   GNU Lesser General Public License for more details.
   
   Cite this work as:
   * C. Bannwarth, E. Caldeweyher, S. Ehlert, A. Hansen, P. Pracht,
     J. Seibert, S. Spicher, S. Grimme, WIREs Comput. Mol. Sci., 2020, 11,
     e01493. DOI: 10.1002/wcms.1493
   
   for GFN2-xTB:
   * C. Bannwarth, S. Ehlert and S. Grimme., J. Chem. Theory Comput., 2019,
     15, 1652-1671. DOI: 10.1021/acs.jctc.8b01176
   for GFN1-xTB:
   * S. Grimme, C. Bannwarth, P. Shushkov, J. Chem. Theory Comput., 2017,
     13, 1989-2009. DOI: 10.1021/acs.jctc.7b00118
   for GFN0-xTB:
   * P. Pracht, E. Caldeweyher, S. Ehlert, S. Grimme, ChemRxiv, 2019, preprint.
     DOI: 10.26434/chemrxiv.8326202.v1
   for GFN-FF:
   * S. Spicher and S. Grimme, Angew. Chem. Int. Ed., 2020, 59, 15665-15673.
     DOI: 10.1002/anie.202004239
   
   for ALPB and GBSA implicit solvation:
   * S. Ehlert, M. Stahn, S. Spicher, S. Grimme, J. Chem. Theory Comput.,
     2021, 17, 4250-4261. DOI: 10.1021/acs.jctc.1c00471
   
   for ddCOSMO and CPCM-X implicit solvation:
   * M. Stahn, S. Ehlert, S. Grimme, J. Phys. Chem. A,
     2023, XX, XXXX-XXXX. DOI: 10.1021/acs.jpca.3c04382
   
   for DFT-D4:
   * E. Caldeweyher, C. Bannwarth and S. Grimme, J. Chem. Phys., 2017,
     147, 034112. DOI: 10.1063/1.4993215
   * E. Caldeweyher, S. Ehlert, A. Hansen, H. Neugebauer, S. Spicher,
     C. Bannwarth and S. Grimme, J. Chem. Phys., 2019, 150, 154122.
     DOI: 10.1063/1.5090222
   * E. Caldeweyher, J.-M. Mewes, S. Ehlert and S. Grimme, Phys. Chem. Chem. Phys.
     2020, 22, 8499-8512. DOI: 10.1039/D0CP00502A
   
   for sTDA-xTB:
   * S. Grimme and C. Bannwarth, J. Chem. Phys., 2016, 145, 054103.
     DOI: 10.1063/1.4959605
   
   in the mass-spec context:
   * V. Asgeirsson, C. Bauer and S. Grimme, Chem. Sci., 2017, 8, 4879.
     DOI: 10.1039/c7sc00601b
   * J. Koopman and S. Grimme, ACS Omega 2019, 4, 12, 15120-15133.
     DOI: 10.1021/acsomega.9b02011
   
   for metadynamics refer to:
   * S. Grimme, J. Chem. Theory Comput., 2019, 155, 2847-2862
     DOI: 10.1021/acs.jctc.9b00143
   
   for SPH calculations refer to:
   * S. Spicher and S. Grimme, J. Chem. Theory Comput., 2021, 17, 1701-1714
     DOI: 10.1021/acs.jctc.0c01306
   
   for ONIOM refer to:
   * C. Plett, A. Katbashev, S. Ehlert, S. Grimme, M. Bursch,
     Phys. Chem. Chem. Phys., 2023, 25, 17860-17868. DOI: 10.1039/D3CP02178E
   
   for DIPRO refer to:
   * J. Kohn, N. Gildemeister, S. Grimme, D. Fazzi, A. Hansen,
     J. Chem. Phys., 2023, just accepted.
   
   for PTB refer to:
   * S. Grimme, M. Mueller, A. Hansen, J. Chem. Phys., 2023, 158, 124111.
     DOI: 10.1063/5.0137838
   
   with help from (in alphabetical order)
   P. Atkinson, C. Bannwarth, F. Bohle, G. Brandenburg, E. Caldeweyher
   M. Checinski, S. Dohm, S. Ehlert, S. Ehrlich, I. Gerasimov, C. Hölzer
   A. Katbashev, J. Kohn, J. Koopman, C. Lavigne, S. Lehtola, F. März, M. Müller,
   F. Musil, H. Neugebauer, J. Pisarek, C. Plett, P. Pracht, F. Pultar,
   J. Seibert, P. Shushkov, S. Spicher, M. Stahn, M. Steiner, T. Strunk,
   J. Stückrath, T. Rose, and J. Unsleber
   
 * started run on 2025/06/25 at 12:06:08.013     
$$$$$$$$$$$$$$$$$$$$$$$$$$$$$$$$$$$$$$$$$$$$$$$$$$$$$$$$$$$$$$$$$$$$$$$$
 CONSTRAINTS & SCANS: DEBUG SECTION
$$$$$$$$$$$$$$$$$$$$$$$$$$$$$$$$$$$$$$$$$$$$$$$$$$$$$$$$$$$$$$$$$$$$$$$$
   ID    Z sym.   atoms
    1    6 C      1, 4
    2   16 S      2
    3    8 O      3
    4    1 H      5-10
$$$$$$$$$$$$$$$$$$$$$$$$$$$$$$$$$$$$$$$$$$$$$$$$$$$$$$$$$$$$$$$$$$$$$$$$

           -------------------------------------------------
          |                Calculation Setup                |
           -------------------------------------------------

          program call               : C:\Users\nkapa\Downloads\xtb-6.7.1pre-windows-x86_64\xtb-6.7.1\bin\xtb.EXE dft_tmp\mol_21.xyz --gfn2 --parallel 8 --verbose
          coordinate file            : dft_tmp\mol_21.xyz
          xtbhome directory          : C:\Users\nkapa\AppData\Roaming\SPB_Data
          path for xtb               : C:\Users\nkapa\Downloads\xtb-6.7.1pre-windows-x86_64\xtb-6.7.1\share\xtb
          xcontrol input file        : dft_tmp\mol_21.xyz
          omp threads                :                     8


           -------------------------------------------------
          |                 G F N 2 - x T B                 |
           -------------------------------------------------

        Reference                      10.1021/acs.jctc.8b01176
      * Hamiltonian:
        H0-scaling (s, p, d)           1.850000    2.230000    2.230000
        zeta-weighting                 0.500000
      * Dispersion:
        s8                             2.700000
        a1                             0.520000
        a2                             5.000000
        s9                             5.000000
      * Repulsion:
        kExp                           1.500000    1.000000
        rExp                           1.000000
      * Coulomb:
        alpha                          2.000000
        third order                    shell-resolved
        anisotropic                    true
        a3                             3.000000
        a5                             4.000000
        cn-shift                       1.200000
        cn-exp                         4.000000
        max-rad                        5.000000


          ...................................................
          :                      SETUP                      :
          :.................................................:
          :  # basis functions                  28          :
          :  # atomic orbitals                  27          :
          :  # shells                           15          :
          :  # electrons                        26          :
          :  max. iterations                   250          :
          :  Hamiltonian                  GFN2-xTB          :
          :  restarted?                      false          :
          :  GBSA solvation                  false          :
          :  PC potential                    false          :
          :  electronic temp.          300.0000000     K    :
          :  accuracy                    1.0000000          :
          :  -> integral cutoff          0.2500000E+02      :
          :  -> integral neglect         0.1000000E-07      :
          :  -> SCF convergence          0.1000000E-05 Eh   :
          :  -> wf. convergence          0.1000000E-03 e    :
          :  Broyden damping             0.4000000          :
          :  net charge                          0          :
          :  unpaired electrons                  0          :
          ...................................................

 iter      E             dE          RMSdq      gap      omega  full diag
   1    -14.6868774 -0.146869E+02  0.509E+00    6.15       0.0  T
   2    -14.7240258 -0.371484E-01  0.318E+00    5.42       1.0  T
   3    -14.7261881 -0.216230E-02  0.142E+00    5.33       1.0  T
   4    -14.7266076 -0.419483E-03  0.440E-01    5.17       1.0  T
   5    -14.7266434 -0.358003E-04  0.150E-01    5.23       1.0  T
   6    -14.7266675 -0.240970E-04  0.882E-02    5.21       1.0  T
   7    -14.7266721 -0.468833E-05  0.289E-02    5.22       1.1  T
   8    -14.7266753 -0.313932E-05  0.594E-03    5.22       5.3  T
   9    -14.7266753 -0.519891E-07  0.603E-04    5.21      52.4  T
  10    -14.7266753 -0.376211E-09  0.152E-04    5.22     207.7  T

   *** convergence criteria satisfied after 10 iterations ***

         #    Occupation            Energy/Eh            Energy/eV
      -------------------------------------------------------------
         1        2.0000           -0.7483048             -20.3624
       ...           ...                  ...                  ...
         7        2.0000           -0.5177294             -14.0881
         8        2.0000           -0.5002486             -13.6125
         9        2.0000           -0.4849293             -13.1956
        10        2.0000           -0.4805819             -13.0773
        11        2.0000           -0.4515860             -12.2883
        12        2.0000           -0.3947672             -10.7422
        13        2.0000           -0.3739486             -10.1757 (HOMO)
        14                         -0.1822998              -4.9606 (LUMO)
        15                         -0.1688683              -4.5951
        16                         -0.0823576              -2.2411
        17                          0.0226976               0.6176
        18                          0.0462598               1.2588
       ...                                ...                  ...
        27                          0.7648721              20.8132
      -------------------------------------------------------------
                  HL-Gap            0.1916488 Eh            5.2150 eV
             Fermi-level           -0.2781242 Eh           -7.5681 eV

 SCC (total)                   0 d,  0 h,  0 min,  0.004 sec
 SCC setup                      ...        0 min,  0.000 sec (  0.000%)
 Dispersion                     ...        0 min,  0.000 sec (  0.000%)
 classical contributions        ...        0 min,  0.000 sec (  0.000%)
 integral evaluation            ...        0 min,  0.001 sec ( 25.004%)
 iterations                     ...        0 min,  0.002 sec ( 49.997%)
 molecular gradient             ...        0 min,  0.001 sec ( 24.999%)
 printout                       ...        0 min,  0.000 sec (  0.000%)

         :::::::::::::::::::::::::::::::::::::::::::::::::::::
         ::                     SUMMARY                     ::
         :::::::::::::::::::::::::::::::::::::::::::::::::::::
         :: total energy             -14.612147576587 Eh    ::
         :: gradient norm              0.096671900595 Eh/a0 ::
         :: HOMO-LUMO gap              5.215029571301 eV    ::
         ::.................................................::
         :: HOMO orbital eigv.       -10.175660445446 eV    ::
         :: LUMO orbital eigv.        -4.960630874145 eV    ::
         ::.................................................::
         :: SCC energy               -14.726672772852 Eh    ::
         :: -> isotropic ES            0.047660782710 Eh    ::
         :: -> anisotropic ES          0.002734957346 Eh    ::
         :: -> anisotropic XC          0.006846987751 Eh    ::
         :: -> dispersion             -0.005072511152 Eh    ::
         :: repulsion energy           0.114525196265 Eh    ::
         :: add. restraining           0.000000000000 Eh    ::
         :: total charge               0.000000000000 e     ::
         ::.................................................::
         :: atomisation energy         2.095056536416 Eh    ::
         :::::::::::::::::::::::::::::::::::::::::::::::::::::

           -------------------------------------------------
          |                Property Printout                |
           -------------------------------------------------

    * Orbital Energies and Occupations

         #    Occupation            Energy/Eh            Energy/eV
      -------------------------------------------------------------
         1        2.0000           -0.7483048             -20.3624
         2        2.0000           -0.6237600             -16.9734
         3        2.0000           -0.6188470             -16.8397
         4        2.0000           -0.5983681             -16.2824
         5        2.0000           -0.5220319             -14.2052
         6        2.0000           -0.5217108             -14.1965
         7        2.0000           -0.5177294             -14.0881
         8        2.0000           -0.5002486             -13.6125
         9        2.0000           -0.4849293             -13.1956
        10        2.0000           -0.4805819             -13.0773
        11        2.0000           -0.4515860             -12.2883
        12        2.0000           -0.3947672             -10.7422
        13        2.0000           -0.3739486             -10.1757 (HOMO)
        14                         -0.1822998              -4.9606 (LUMO)
        15                         -0.1688683              -4.5951
        16                         -0.0823576              -2.2411
        17                          0.0226976               0.6176
        18                          0.0462598               1.2588
        19                          0.0814649               2.2168
        20                          0.1175886               3.1997
        21                          0.1184923               3.2243
        22                          0.1642266               4.4688
        23                          0.1665329               4.5316
        24                          0.2056992               5.5974
       ...                                ...                  ...
        27                          0.7648721              20.8132
      -------------------------------------------------------------
                  HL-Gap            0.1916488 Eh            5.2150 eV
             Fermi-level           -0.2781242 Eh           -7.5681 eV

     #   Z          covCN         q      C6AA      α(0)
     1   6 C        3.736    -0.117    22.826     6.818
     2  16 S        2.801     0.378   126.580    18.936
     3   8 O        0.859    -0.528    24.412     6.624
     4   6 C        3.736    -0.117    22.826     6.818
     5   1 H        0.922     0.075     2.035     2.231
     6   1 H        0.922     0.048     2.340     2.392
     7   1 H        0.922     0.068     2.103     2.268
     8   1 H        0.922     0.068     2.103     2.268
     9   1 H        0.922     0.075     2.035     2.231
    10   1 H        0.922     0.048     2.340     2.392

 Mol. C6AA /au·bohr⁶  :       1185.146761
 Mol. C8AA /au·bohr⁸  :      33215.711940
 Mol. α(0) /au        :         52.978886


Wiberg/Mayer (AO) data.
largest (>0.10) Wiberg bond orders for each atom

 ---------------------------------------------------------------------------
     #   Z sym  total        # sym  WBO       # sym  WBO       # sym  WBO
 ---------------------------------------------------------------------------
     1   6 C    3.987 --     6 H    0.982     7 H    0.978     5 H    0.974
                             2 S    0.967
     2  16 S    3.736 --     3 O    1.746     4 C    0.967     1 C    0.967
     3   8 O    1.898 --     2 S    1.746
     4   6 C    3.987 --    10 H    0.982     8 H    0.978     9 H    0.974
                             2 S    0.967
     5   1 H    0.994 --     1 C    0.974
     6   1 H    0.998 --     1 C    0.982
     7   1 H    0.995 --     1 C    0.978
     8   1 H    0.995 --     4 C    0.978
     9   1 H    0.994 --     4 C    0.974
    10   1 H    0.998 --     4 C    0.982
 ---------------------------------------------------------------------------

Topologies differ in total number of bonds
Writing topology from bond orders to xtbtopo.mol

molecular dipole:
                 x           y           z       tot (Debye)
 q only:       -0.200       1.579      -0.515
   full:       -0.164       1.622      -0.960       4.809
molecular quadrupole (traceless):
                xx          xy          yy          xz          yz          zz
 q only:        5.191       1.351      -6.055      -0.315       4.733       0.863
  q+dip:        6.233       1.401      -5.829      -0.225       5.574      -0.403
   full:        6.612       1.553      -6.118      -0.109       5.149      -0.494


           -------------------------------------------------
          | TOTAL ENERGY              -14.612147576587 Eh   |
          | GRADIENT NORM               0.096671900595 Eh/α |
          | HOMO-LUMO GAP               5.215029571301 eV   |
           -------------------------------------------------
########################################################################
[WARNING] Runtime exception occurred
-2- restart_readRestart: Dimension missmatch in restart file.
-1- restart_readRestart: Number of electron missmatch in restart file.
########################################################################

------------------------------------------------------------------------
 unit  open   action     filename
  129 false : read       dft_tmp\mol_21.xyz
  129 false : read       dft_tmp\mol_21.xyz
  129 false : read       dft_tmp\mol_21.xyz
  129 false : read       C:\Users\nkapa\Downloads\xtb-6.7.1pre-windows-x86_64\xtb-6.7.1\share\xtb\param_gfn2-xtb.txt
  129 false : read       xtbrestart
  129 false : replaced   charges
  129 false : replaced   wbo
  129 false : replaced   xtbtopo.mol
  129 false : replaced   xtbrestart

------------------------------------------------------------------------
 * finished run on 2025/06/25 at 12:06:08.067     
------------------------------------------------------------------------
 total:
 * wall-time:     0 d,  0 h,  0 min,  0.053 sec
 *  cpu-time:     0 d,  0 h,  0 min,  0.125 sec
 * ratio c/w:     2.358 speedup
 SCF:
 * wall-time:     0 d,  0 h,  0 min,  0.004 sec
 *  cpu-time:     0 d,  0 h,  0 min,  0.000 sec
 * ratio c/w:     0.000 speedup

normal termination of xtb
