      -----------------------------------------------------------      
     |                   =====================                   |     
     |                           x T B                           |     
     |                   =====================                   |     
     |                         S. Grimme                         |     
     |          Mulliken Center for Theoretical Chemistry        |     
     |                    University of Bonn                     |     
      -----------------------------------------------------------      

   * xtb version 6.7.1pre (5071a88) compiled by 'Marcel@Raven' on 2024-07-23

   xtb is free software: you can redistribute it and/or modify it under
   the terms of the GNU Lesser General Public License as published by
   the Free Software Foundation, either version 3 of the License, or
   (at your option) any later version.
   
   xtb is distributed in the hope that it will be useful,
   but WITHOUT ANY WARRANTY; without even the implied warranty of
   MERCHANTABILITY or FITNESS FOR A PARTICULAR PURPOSE.  See the
   GNU Lesser General Public License for more details.
   
   Cite this work as:
   * C. Bannwarth, E. Caldeweyher, S. Ehlert, A. Hansen, P. Pracht,
     J. Seibert, S. Spicher, S. Grimme, WIREs Comput. Mol. Sci., 2020, 11,
     e01493. DOI: 10.1002/wcms.1493
   
   for GFN2-xTB:
   * C. Bannwarth, S. Ehlert and S. Grimme., J. Chem. Theory Comput., 2019,
     15, 1652-1671. DOI: 10.1021/acs.jctc.8b01176
   for GFN1-xTB:
   * S. Grimme, C. Bannwarth, P. Shushkov, J. Chem. Theory Comput., 2017,
     13, 1989-2009. DOI: 10.1021/acs.jctc.7b00118
   for GFN0-xTB:
   * P. Pracht, E. Caldeweyher, S. Ehlert, S. Grimme, ChemRxiv, 2019, preprint.
     DOI: 10.26434/chemrxiv.8326202.v1
   for GFN-FF:
   * S. Spicher and S. Grimme, Angew. Chem. Int. Ed., 2020, 59, 15665-15673.
     DOI: 10.1002/anie.202004239
   
   for ALPB and GBSA implicit solvation:
   * S. Ehlert, M. Stahn, S. Spicher, S. Grimme, J. Chem. Theory Comput.,
     2021, 17, 4250-4261. DOI: 10.1021/acs.jctc.1c00471
   
   for ddCOSMO and CPCM-X implicit solvation:
   * M. Stahn, S. Ehlert, S. Grimme, J. Phys. Chem. A,
     2023, XX, XXXX-XXXX. DOI: 10.1021/acs.jpca.3c04382
   
   for DFT-D4:
   * E. Caldeweyher, C. Bannwarth and S. Grimme, J. Chem. Phys., 2017,
     147, 034112. DOI: 10.1063/1.4993215
   * E. Caldeweyher, S. Ehlert, A. Hansen, H. Neugebauer, S. Spicher,
     C. Bannwarth and S. Grimme, J. Chem. Phys., 2019, 150, 154122.
     DOI: 10.1063/1.5090222
   * E. Caldeweyher, J.-M. Mewes, S. Ehlert and S. Grimme, Phys. Chem. Chem. Phys.
     2020, 22, 8499-8512. DOI: 10.1039/D0CP00502A
   
   for sTDA-xTB:
   * S. Grimme and C. Bannwarth, J. Chem. Phys., 2016, 145, 054103.
     DOI: 10.1063/1.4959605
   
   in the mass-spec context:
   * V. Asgeirsson, C. Bauer and S. Grimme, Chem. Sci., 2017, 8, 4879.
     DOI: 10.1039/c7sc00601b
   * J. Koopman and S. Grimme, ACS Omega 2019, 4, 12, 15120-15133.
     DOI: 10.1021/acsomega.9b02011
   
   for metadynamics refer to:
   * S. Grimme, J. Chem. Theory Comput., 2019, 155, 2847-2862
     DOI: 10.1021/acs.jctc.9b00143
   
   for SPH calculations refer to:
   * S. Spicher and S. Grimme, J. Chem. Theory Comput., 2021, 17, 1701-1714
     DOI: 10.1021/acs.jctc.0c01306
   
   for ONIOM refer to:
   * C. Plett, A. Katbashev, S. Ehlert, S. Grimme, M. Bursch,
     Phys. Chem. Chem. Phys., 2023, 25, 17860-17868. DOI: 10.1039/D3CP02178E
   
   for DIPRO refer to:
   * J. Kohn, N. Gildemeister, S. Grimme, D. Fazzi, A. Hansen,
     J. Chem. Phys., 2023, just accepted.
   
   for PTB refer to:
   * S. Grimme, M. Mueller, A. Hansen, J. Chem. Phys., 2023, 158, 124111.
     DOI: 10.1063/5.0137838
   
   with help from (in alphabetical order)
   P. Atkinson, C. Bannwarth, F. Bohle, G. Brandenburg, E. Caldeweyher
   M. Checinski, S. Dohm, S. Ehlert, S. Ehrlich, I. Gerasimov, C. Hölzer
   A. Katbashev, J. Kohn, J. Koopman, C. Lavigne, S. Lehtola, F. März, M. Müller,
   F. Musil, H. Neugebauer, J. Pisarek, C. Plett, P. Pracht, F. Pultar,
   J. Seibert, P. Shushkov, S. Spicher, M. Stahn, M. Steiner, T. Strunk,
   J. Stückrath, T. Rose, and J. Unsleber
   
 * started run on 2025/06/25 at 12:06:18.562     
$$$$$$$$$$$$$$$$$$$$$$$$$$$$$$$$$$$$$$$$$$$$$$$$$$$$$$$$$$$$$$$$$$$$$$$$
 CONSTRAINTS & SCANS: DEBUG SECTION
$$$$$$$$$$$$$$$$$$$$$$$$$$$$$$$$$$$$$$$$$$$$$$$$$$$$$$$$$$$$$$$$$$$$$$$$
   ID    Z sym.   atoms
    1    6 C      1, 3-6
    2   16 S      2
    3    8 O      7, 8
    4    7 N      9
    5    1 H      10-20
$$$$$$$$$$$$$$$$$$$$$$$$$$$$$$$$$$$$$$$$$$$$$$$$$$$$$$$$$$$$$$$$$$$$$$$$

           -------------------------------------------------
          |                Calculation Setup                |
           -------------------------------------------------

          program call               : C:\Users\nkapa\Downloads\xtb-6.7.1pre-windows-x86_64\xtb-6.7.1\bin\xtb.EXE dft_tmp\mol_79.xyz --gfn2 --parallel 8 --verbose
          coordinate file            : dft_tmp\mol_79.xyz
          xtbhome directory          : C:\Users\nkapa\AppData\Roaming\SPB_Data
          path for xtb               : C:\Users\nkapa\Downloads\xtb-6.7.1pre-windows-x86_64\xtb-6.7.1\share\xtb
          xcontrol input file        : dft_tmp\mol_79.xyz
          omp threads                :                     8


           -------------------------------------------------
          |                 G F N 2 - x T B                 |
           -------------------------------------------------

        Reference                      10.1021/acs.jctc.8b01176
      * Hamiltonian:
        H0-scaling (s, p, d)           1.850000    2.230000    2.230000
        zeta-weighting                 0.500000
      * Dispersion:
        s8                             2.700000
        a1                             0.520000
        a2                             5.000000
        s9                             5.000000
      * Repulsion:
        kExp                           1.500000    1.000000
        rExp                           1.000000
      * Coulomb:
        alpha                          2.000000
        third order                    shell-resolved
        anisotropic                    true
        a3                             3.000000
        a5                             4.000000
        cn-shift                       1.200000
        cn-exp                         4.000000
        max-rad                        5.000000


          ...................................................
          :                      SETUP                      :
          :.................................................:
          :  # basis functions                  53          :
          :  # atomic orbitals                  52          :
          :  # shells                           30          :
          :  # electrons                        54          :
          :  max. iterations                   250          :
          :  Hamiltonian                  GFN2-xTB          :
          :  restarted?                      false          :
          :  GBSA solvation                  false          :
          :  PC potential                    false          :
          :  electronic temp.          300.0000000     K    :
          :  accuracy                    1.0000000          :
          :  -> integral cutoff          0.2500000E+02      :
          :  -> integral neglect         0.1000000E-07      :
          :  -> SCF convergence          0.1000000E-05 Eh   :
          :  -> wf. convergence          0.1000000E-03 e    :
          :  Broyden damping             0.4000000          :
          :  net charge                          0          :
          :  unpaired electrons                  0          :
          ...................................................

 iter      E             dE          RMSdq      gap      omega  full diag
   1    -30.7660847 -0.307661E+02  0.437E+00    3.65       0.0  T
   2    -30.8225394 -0.564547E-01  0.225E+00    2.90       1.0  T
   3    -30.8253277 -0.278831E-02  0.129E+00    3.01       1.0  T
   4    -30.8328500 -0.752235E-02  0.350E-01    2.42       1.0  T
   5    -30.8331798 -0.329752E-03  0.160E-01    2.46       1.0  T
   6    -30.8332387 -0.588707E-04  0.466E-02    2.44       1.0  T
   7    -30.8332408 -0.215423E-05  0.161E-02    2.45       1.4  T
   8    -30.8332413 -0.471130E-06  0.566E-03    2.45       4.0  T
   9    -30.8332414 -0.775448E-07  0.177E-03    2.45      12.6  T
  10    -30.8332414 -0.621655E-08  0.661E-04    2.45      33.8  T
  11    -30.8332414 -0.189562E-08  0.252E-04    2.45      88.8  T

   *** convergence criteria satisfied after 11 iterations ***

         #    Occupation            Energy/Eh            Energy/eV
      -------------------------------------------------------------
         1        2.0000           -0.7367778             -20.0487
       ...           ...                  ...                  ...
        21        2.0000           -0.4724166             -12.8551
        22        2.0000           -0.4685706             -12.7505
        23        2.0000           -0.4489815             -12.2174
        24        2.0000           -0.4405323             -11.9875
        25        2.0000           -0.4238486             -11.5335
        26        2.0000           -0.3879172             -10.5558
        27        2.0000           -0.3559087              -9.6848 (HOMO)
        28                         -0.2657450              -7.2313 (LUMO)
        29                         -0.2042858              -5.5589
        30                         -0.1330527              -3.6205
        31                         -0.0574883              -1.5643
        32                         -0.0066204              -0.1802
       ...                                ...                  ...
        52                          0.4532063              12.3324
      -------------------------------------------------------------
                  HL-Gap            0.0901637 Eh            2.4535 eV
             Fermi-level           -0.3108269 Eh           -8.4580 eV

 SCC (total)                   0 d,  0 h,  0 min,  0.007 sec
 SCC setup                      ...        0 min,  0.000 sec (  0.000%)
 Dispersion                     ...        0 min,  0.000 sec (  0.000%)
 classical contributions        ...        0 min,  0.000 sec (  0.000%)
 integral evaluation            ...        0 min,  0.001 sec ( 14.285%)
 iterations                     ...        0 min,  0.005 sec ( 71.431%)
 molecular gradient             ...        0 min,  0.001 sec ( 14.285%)
 printout                       ...        0 min,  0.000 sec (  0.000%)

         :::::::::::::::::::::::::::::::::::::::::::::::::::::
         ::                     SUMMARY                     ::
         :::::::::::::::::::::::::::::::::::::::::::::::::::::
         :: total energy             -30.582564720045 Eh    ::
         :: gradient norm              0.142973640910 Eh/a0 ::
         :: HOMO-LUMO gap              2.453479436747 eV    ::
         ::.................................................::
         :: HOMO orbital eigv.        -9.684769981075 eV    ::
         :: LUMO orbital eigv.        -7.231290544328 eV    ::
         ::.................................................::
         :: SCC energy               -30.833182522545 Eh    ::
         :: -> isotropic ES            0.062082896481 Eh    ::
         :: -> anisotropic ES          0.005646036125 Eh    ::
         :: -> anisotropic XC          0.015419311705 Eh    ::
         :: -> dispersion             -0.014643141381 Eh    ::
         :: repulsion energy           0.250617802499 Eh    ::
         :: add. restraining           0.000000000000 Eh    ::
         :: total charge              -0.000000000000 e     ::
         ::.................................................::
         :: atomisation energy         4.932952242859 Eh    ::
         :::::::::::::::::::::::::::::::::::::::::::::::::::::

           -------------------------------------------------
          |                Property Printout                |
           -------------------------------------------------

    * Orbital Energies and Occupations

         #    Occupation            Energy/Eh            Energy/eV
      -------------------------------------------------------------
         1        2.0000           -0.7367778             -20.0487
       ...           ...                  ...                  ...
        15        2.0000           -0.5192981             -14.1308
        16        2.0000           -0.5036533             -13.7051
        17        2.0000           -0.4978903             -13.5483
        18        2.0000           -0.4968823             -13.5209
        19        2.0000           -0.4832695             -13.1504
        20        2.0000           -0.4757268             -12.9452
        21        2.0000           -0.4724166             -12.8551
        22        2.0000           -0.4685706             -12.7505
        23        2.0000           -0.4489815             -12.2174
        24        2.0000           -0.4405323             -11.9875
        25        2.0000           -0.4238486             -11.5335
        26        2.0000           -0.3879172             -10.5558
        27        2.0000           -0.3559087              -9.6848 (HOMO)
        28                         -0.2657450              -7.2313 (LUMO)
        29                         -0.2042858              -5.5589
        30                         -0.1330527              -3.6205
        31                         -0.0574883              -1.5643
        32                         -0.0066204              -0.1802
        33                          0.0011329               0.0308
        34                          0.0127837               0.3479
        35                          0.0162139               0.4412
        36                          0.0678332               1.8458
        37                          0.0789691               2.1489
        38                          0.1048994               2.8545
       ...                                ...                  ...
        52                          0.4532063              12.3324
      -------------------------------------------------------------
                  HL-Gap            0.0901637 Eh            2.4535 eV
             Fermi-level           -0.3108269 Eh           -8.4580 eV

     #   Z          covCN         q      C6AA      α(0)
     1   6 C        3.734    -0.047    21.513     6.620
     2  16 S        1.970    -0.197   149.426    20.574
     3   6 C        3.787    -0.008    20.740     6.486
     4   6 C        3.827    -0.053    21.500     6.598
     5   6 C        3.779     0.049    19.781     6.336
     6   6 C        2.690     0.339    21.234     7.541
     7   8 O        0.856    -0.396    21.594     6.230
     8   8 O        1.647    -0.384    20.544     6.118
     9   7 N        2.626    -0.322    28.280     7.898
    10   1 H        0.922     0.042     2.418     2.432
    11   1 H        0.922     0.048     2.340     2.393
    12   1 H        0.922     0.055     2.258     2.350
    13   1 H        0.922     0.067     2.124     2.279
    14   1 H        0.922     0.056     2.246     2.344
    15   1 H        0.921     0.052     2.293     2.368
    16   1 H        0.921     0.046     2.368     2.407
    17   1 H        0.921     0.031     2.580     2.512
    18   1 H        0.796     0.332     0.634     1.251
    19   1 H        0.857     0.143     1.448     1.885
    20   1 H        0.857     0.146     1.431     1.874

 Mol. C6AA /au·bohr⁶  :       4197.128762
 Mol. C8AA /au·bohr⁸  :     107078.512708
 Mol. α(0) /au        :         98.496343


Wiberg/Mayer (AO) data.
largest (>0.10) Wiberg bond orders for each atom

 ---------------------------------------------------------------------------
     #   Z sym  total        # sym  WBO       # sym  WBO       # sym  WBO
 ---------------------------------------------------------------------------
     1   6 C    3.980 --     2 S    1.014    11 H    0.983    10 H    0.983
                            12 H    0.983
     2  16 S    2.087 --     1 C    1.014     3 C    0.993
     3   6 C    3.975 --     4 C    1.013     2 S    0.993    14 H    0.973
                            13 H    0.968
     4   6 C    3.991 --     3 C    1.013    15 H    0.975    16 H    0.970
                             5 C    0.959
     5   6 C    3.988 --     9 N    1.014     6 C    0.980     4 C    0.959
                            17 H    0.951
     6   6 C    3.914 --     7 O    1.764     8 O    1.118     5 C    0.980
     7   8 O    2.029 --     6 C    1.764     8 O    0.174
     8   8 O    2.183 --     6 C    1.118    18 H    0.863     7 O    0.174
     9   7 N    2.999 --     5 C    1.014    19 H    0.965    20 H    0.963
    10   1 H    0.998 --     1 C    0.983
    11   1 H    0.998 --     1 C    0.983
    12   1 H    0.997 --     1 C    0.983
    13   1 H    0.996 --     3 C    0.968
    14   1 H    0.997 --     3 C    0.973
    15   1 H    0.997 --     4 C    0.975
    16   1 H    0.998 --     4 C    0.970
    17   1 H    0.999 --     5 C    0.951
    18   1 H    0.889 --     8 O    0.863
    19   1 H    0.979 --     9 N    0.965
    20   1 H    0.978 --     9 N    0.963
 ---------------------------------------------------------------------------

Topologies differ in total number of bonds
Writing topology from bond orders to xtbtopo.mol

molecular dipole:
                 x           y           z       tot (Debye)
 q only:       -0.230      -0.959      -0.290
   full:       -0.727      -1.414      -0.219       4.080
molecular quadrupole (traceless):
                xx          xy          yy          xz          yz          zz
 q only:        4.862      -3.885       0.170       6.328      -4.450      -5.032
  q+dip:        6.690      -5.931       2.454       8.459      -4.636      -9.144
   full:        7.443      -6.019       1.892       7.663      -5.525      -9.335


           -------------------------------------------------
          | TOTAL ENERGY              -30.582564720045 Eh   |
          | GRADIENT NORM               0.142973640910 Eh/α |
          | HOMO-LUMO GAP               2.453479436747 eV   |
           -------------------------------------------------
########################################################################
[WARNING] Runtime exception occurred
-2- restart_readRestart: Dimension missmatch in restart file.
-1- restart_readRestart: Number of electron missmatch in restart file.
########################################################################

------------------------------------------------------------------------
 unit  open   action     filename
  129 false : read       dft_tmp\mol_79.xyz
  129 false : read       dft_tmp\mol_79.xyz
  129 false : read       dft_tmp\mol_79.xyz
  129 false : read       C:\Users\nkapa\Downloads\xtb-6.7.1pre-windows-x86_64\xtb-6.7.1\share\xtb\param_gfn2-xtb.txt
  129 false : read       xtbrestart
  129 false : replaced   charges
  129 false : replaced   wbo
  129 false : replaced   xtbtopo.mol
  129 false : replaced   xtbrestart

------------------------------------------------------------------------
 * finished run on 2025/06/25 at 12:06:18.594     
------------------------------------------------------------------------
 total:
 * wall-time:     0 d,  0 h,  0 min,  0.030 sec
 *  cpu-time:     0 d,  0 h,  0 min,  0.125 sec
 * ratio c/w:     4.167 speedup
 SCF:
 * wall-time:     0 d,  0 h,  0 min,  0.007 sec
 *  cpu-time:     0 d,  0 h,  0 min,  0.078 sec
 * ratio c/w:    11.161 speedup

normal termination of xtb
