30

C 5.522072 -0.516063 0.318692
O 4.576478 -0.643405 -0.720326
C 4.026740 0.620048 -1.046689
C 2.693401 0.825909 -0.330507
O 1.808262 -0.217862 -0.679138
C 0.578670 -0.036649 -0.009607
C -0.370921 -1.168100 -0.395025
O -1.581953 -1.058793 0.329794
C -2.573174 -0.425119 -0.452283
C -3.812390 -0.193588 0.402321
O -4.805179 0.433380 -0.381403
C -5.953310 0.651385 0.407161
H 6.410159 0.059111 -0.024449
H 5.077155 -0.041536 1.221038
H 5.868490 -1.529319 0.608130
H 3.841213 0.640878 -2.141770
H 4.709514 1.476549 -0.830703
H 2.280964 1.811482 -0.646161
H 2.875399 0.843990 0.767890
H 0.724605 -0.062695 1.094815
H 0.114168 0.933304 -0.298458
H -0.509460 -1.191671 -1.502777
H 0.105246 -2.132807 -0.118120
H -2.217193 0.560932 -0.829561
H -2.853961 -1.072462 -1.314107
H -3.526947 0.450142 1.266233
H -4.170468 -1.180440 0.776584
H -6.380108 -0.309250 0.772482
H -6.724618 1.143434 -0.220179
H -5.732851 1.329215 1.261781
