      -----------------------------------------------------------      
     |                   =====================                   |     
     |                           x T B                           |     
     |                   =====================                   |     
     |                         S. Grimme                         |     
     |          Mulliken Center for Theoretical Chemistry        |     
     |                    University of Bonn                     |     
      -----------------------------------------------------------      

   * xtb version 6.7.1pre (5071a88) compiled by 'Marcel@Raven' on 2024-07-23

   xtb is free software: you can redistribute it and/or modify it under
   the terms of the GNU Lesser General Public License as published by
   the Free Software Foundation, either version 3 of the License, or
   (at your option) any later version.
   
   xtb is distributed in the hope that it will be useful,
   but WITHOUT ANY WARRANTY; without even the implied warranty of
   MERCHANTABILITY or FITNESS FOR A PARTICULAR PURPOSE.  See the
   GNU Lesser General Public License for more details.
   
   Cite this work as:
   * C. Bannwarth, E. Caldeweyher, S. Ehlert, A. Hansen, P. Pracht,
     J. Seibert, S. Spicher, S. Grimme, WIREs Comput. Mol. Sci., 2020, 11,
     e01493. DOI: 10.1002/wcms.1493
   
   for GFN2-xTB:
   * C. Bannwarth, S. Ehlert and S. Grimme., J. Chem. Theory Comput., 2019,
     15, 1652-1671. DOI: 10.1021/acs.jctc.8b01176
   for GFN1-xTB:
   * S. Grimme, C. Bannwarth, P. Shushkov, J. Chem. Theory Comput., 2017,
     13, 1989-2009. DOI: 10.1021/acs.jctc.7b00118
   for GFN0-xTB:
   * P. Pracht, E. Caldeweyher, S. Ehlert, S. Grimme, ChemRxiv, 2019, preprint.
     DOI: 10.26434/chemrxiv.8326202.v1
   for GFN-FF:
   * S. Spicher and S. Grimme, Angew. Chem. Int. Ed., 2020, 59, 15665-15673.
     DOI: 10.1002/anie.202004239
   
   for ALPB and GBSA implicit solvation:
   * S. Ehlert, M. Stahn, S. Spicher, S. Grimme, J. Chem. Theory Comput.,
     2021, 17, 4250-4261. DOI: 10.1021/acs.jctc.1c00471
   
   for ddCOSMO and CPCM-X implicit solvation:
   * M. Stahn, S. Ehlert, S. Grimme, J. Phys. Chem. A,
     2023, XX, XXXX-XXXX. DOI: 10.1021/acs.jpca.3c04382
   
   for DFT-D4:
   * E. Caldeweyher, C. Bannwarth and S. Grimme, J. Chem. Phys., 2017,
     147, 034112. DOI: 10.1063/1.4993215
   * E. Caldeweyher, S. Ehlert, A. Hansen, H. Neugebauer, S. Spicher,
     C. Bannwarth and S. Grimme, J. Chem. Phys., 2019, 150, 154122.
     DOI: 10.1063/1.5090222
   * E. Caldeweyher, J.-M. Mewes, S. Ehlert and S. Grimme, Phys. Chem. Chem. Phys.
     2020, 22, 8499-8512. DOI: 10.1039/D0CP00502A
   
   for sTDA-xTB:
   * S. Grimme and C. Bannwarth, J. Chem. Phys., 2016, 145, 054103.
     DOI: 10.1063/1.4959605
   
   in the mass-spec context:
   * V. Asgeirsson, C. Bauer and S. Grimme, Chem. Sci., 2017, 8, 4879.
     DOI: 10.1039/c7sc00601b
   * J. Koopman and S. Grimme, ACS Omega 2019, 4, 12, 15120-15133.
     DOI: 10.1021/acsomega.9b02011
   
   for metadynamics refer to:
   * S. Grimme, J. Chem. Theory Comput., 2019, 155, 2847-2862
     DOI: 10.1021/acs.jctc.9b00143
   
   for SPH calculations refer to:
   * S. Spicher and S. Grimme, J. Chem. Theory Comput., 2021, 17, 1701-1714
     DOI: 10.1021/acs.jctc.0c01306
   
   for ONIOM refer to:
   * C. Plett, A. Katbashev, S. Ehlert, S. Grimme, M. Bursch,
     Phys. Chem. Chem. Phys., 2023, 25, 17860-17868. DOI: 10.1039/D3CP02178E
   
   for DIPRO refer to:
   * J. Kohn, N. Gildemeister, S. Grimme, D. Fazzi, A. Hansen,
     J. Chem. Phys., 2023, just accepted.
   
   for PTB refer to:
   * S. Grimme, M. Mueller, A. Hansen, J. Chem. Phys., 2023, 158, 124111.
     DOI: 10.1063/5.0137838
   
   with help from (in alphabetical order)
   P. Atkinson, C. Bannwarth, F. Bohle, G. Brandenburg, E. Caldeweyher
   M. Checinski, S. Dohm, S. Ehlert, S. Ehrlich, I. Gerasimov, C. Hölzer
   A. Katbashev, J. Kohn, J. Koopman, C. Lavigne, S. Lehtola, F. März, M. Müller,
   F. Musil, H. Neugebauer, J. Pisarek, C. Plett, P. Pracht, F. Pultar,
   J. Seibert, P. Shushkov, S. Spicher, M. Stahn, M. Steiner, T. Strunk,
   J. Stückrath, T. Rose, and J. Unsleber
   
 * started run on 2025/06/25 at 12:07:26.321     
$$$$$$$$$$$$$$$$$$$$$$$$$$$$$$$$$$$$$$$$$$$$$$$$$$$$$$$$$$$$$$$$$$$$$$$$
 CONSTRAINTS & SCANS: DEBUG SECTION
$$$$$$$$$$$$$$$$$$$$$$$$$$$$$$$$$$$$$$$$$$$$$$$$$$$$$$$$$$$$$$$$$$$$$$$$
   ID    Z sym.   atoms
    1    6 C      1-6
    2    8 O      7-11
    3    1 H      12-23
$$$$$$$$$$$$$$$$$$$$$$$$$$$$$$$$$$$$$$$$$$$$$$$$$$$$$$$$$$$$$$$$$$$$$$$$

           -------------------------------------------------
          |                Calculation Setup                |
           -------------------------------------------------

          program call               : C:\Users\nkapa\Downloads\xtb-6.7.1pre-windows-x86_64\xtb-6.7.1\bin\xtb.EXE dft_tmp\mol_544.xyz --gfn2 --parallel 8 --verbose
          coordinate file            : dft_tmp\mol_544.xyz
          xtbhome directory          : C:\Users\nkapa\AppData\Roaming\SPB_Data
          path for xtb               : C:\Users\nkapa\Downloads\xtb-6.7.1pre-windows-x86_64\xtb-6.7.1\share\xtb
          xcontrol input file        : dft_tmp\mol_544.xyz
          omp threads                :                     8


           -------------------------------------------------
          |                 G F N 2 - x T B                 |
           -------------------------------------------------

        Reference                      10.1021/acs.jctc.8b01176
      * Hamiltonian:
        H0-scaling (s, p, d)           1.850000    2.230000    2.230000
        zeta-weighting                 0.500000
      * Dispersion:
        s8                             2.700000
        a1                             0.520000
        a2                             5.000000
        s9                             5.000000
      * Repulsion:
        kExp                           1.500000    1.000000
        rExp                           1.000000
      * Coulomb:
        alpha                          2.000000
        third order                    shell-resolved
        anisotropic                    true
        a3                             3.000000
        a5                             4.000000
        cn-shift                       1.200000
        cn-exp                         4.000000
        max-rad                        5.000000


          ...................................................
          :                      SETUP                      :
          :.................................................:
          :  # basis functions                  56          :
          :  # atomic orbitals                  56          :
          :  # shells                           34          :
          :  # electrons                        66          :
          :  max. iterations                   250          :
          :  Hamiltonian                  GFN2-xTB          :
          :  restarted?                      false          :
          :  GBSA solvation                  false          :
          :  PC potential                    false          :
          :  electronic temp.          300.0000000     K    :
          :  accuracy                    1.0000000          :
          :  -> integral cutoff          0.2500000E+02      :
          :  -> integral neglect         0.1000000E-07      :
          :  -> SCF convergence          0.1000000E-05 Eh   :
          :  -> wf. convergence          0.1000000E-03 e    :
          :  Broyden damping             0.4000000          :
          :  net charge                          0          :
          :  unpaired electrons                  0          :
          ...................................................

 iter      E             dE          RMSdq      gap      omega  full diag
   1    -39.4659045 -0.394659E+02  0.471E+00    4.00       0.0  T
   2    -39.5203414 -0.544369E-01  0.241E+00    3.04       1.0  T
   3    -39.5198902  0.451175E-03  0.146E+00    3.19       1.0  T
   4    -39.5309174 -0.110272E-01  0.220E-01    2.77       1.0  T
   5    -39.5310789 -0.161521E-03  0.868E-02    2.91       1.0  T
   6    -39.5311048 -0.259059E-04  0.312E-02    2.93       1.0  T
   7    -39.5311069 -0.202431E-05  0.132E-02    2.93       1.6  T
   8    -39.5311073 -0.417442E-06  0.366E-03    2.93       5.7  T
   9    -39.5311073 -0.307972E-07  0.141E-03    2.93      14.8  T
  10    -39.5311073 -0.921228E-08  0.371E-04    2.93      56.1  T
  11    -39.5311073 -0.166182E-09  0.120E-04    2.93     173.8  T

   *** convergence criteria satisfied after 11 iterations ***

         #    Occupation            Energy/Eh            Energy/eV
      -------------------------------------------------------------
         1        2.0000           -0.7310134             -19.8919
       ...           ...                  ...                  ...
        27        2.0000           -0.4648499             -12.6492
        28        2.0000           -0.4559790             -12.4078
        29        2.0000           -0.4538109             -12.3488
        30        2.0000           -0.4466394             -12.1537
        31        2.0000           -0.4253775             -11.5751
        32        2.0000           -0.4115740             -11.1995
        33        2.0000           -0.3981710             -10.8348 (HOMO)
        34                         -0.2905118              -7.9052 (LUMO)
        35                         -0.0103193              -0.2808
        36                         -0.0039392              -0.1072
        37                          0.0167666               0.4562
        38                          0.0408472               1.1115
       ...                                ...                  ...
        56                          0.5193818              14.1331
      -------------------------------------------------------------
                  HL-Gap            0.1076592 Eh            2.9296 eV
             Fermi-level           -0.3443414 Eh           -9.3700 eV

 SCC (total)                   0 d,  0 h,  0 min,  0.009 sec
 SCC setup                      ...        0 min,  0.001 sec ( 11.111%)
 Dispersion                     ...        0 min,  0.000 sec (  0.000%)
 classical contributions        ...        0 min,  0.000 sec (  0.000%)
 integral evaluation            ...        0 min,  0.001 sec ( 11.111%)
 iterations                     ...        0 min,  0.005 sec ( 55.558%)
 molecular gradient             ...        0 min,  0.002 sec ( 22.221%)
 printout                       ...        0 min,  0.000 sec (  0.000%)

         :::::::::::::::::::::::::::::::::::::::::::::::::::::
         ::                     SUMMARY                     ::
         :::::::::::::::::::::::::::::::::::::::::::::::::::::
         :: total energy             -39.239413214785 Eh    ::
         :: gradient norm              0.090567389192 Eh/a0 ::
         :: HOMO-LUMO gap              2.929555585015 eV    ::
         ::.................................................::
         :: HOMO orbital eigv.       -10.834783852838 eV    ::
         :: LUMO orbital eigv.        -7.905228267823 eV    ::
         ::.................................................::
         :: SCC energy               -39.530952296257 Eh    ::
         :: -> isotropic ES            0.113198811375 Eh    ::
         :: -> anisotropic ES          0.007470436798 Eh    ::
         :: -> anisotropic XC         -0.001940374949 Eh    ::
         :: -> dispersion             -0.017183572610 Eh    ::
         :: repulsion energy           0.291539081472 Eh    ::
         :: add. restraining           0.000000000000 Eh    ::
         :: total charge               0.000000000000 e     ::
         ::.................................................::
         :: atomisation energy         5.951379241667 Eh    ::
         :::::::::::::::::::::::::::::::::::::::::::::::::::::

           -------------------------------------------------
          |                Property Printout                |
           -------------------------------------------------

    * Orbital Energies and Occupations

         #    Occupation            Energy/Eh            Energy/eV
      -------------------------------------------------------------
         1        2.0000           -0.7310134             -19.8919
       ...           ...                  ...                  ...
        21        2.0000           -0.5294863             -14.4081
        22        2.0000           -0.5098738             -13.8744
        23        2.0000           -0.4980923             -13.5538
        24        2.0000           -0.4853951             -13.2083
        25        2.0000           -0.4829465             -13.1416
        26        2.0000           -0.4814280             -13.1003
        27        2.0000           -0.4648499             -12.6492
        28        2.0000           -0.4559790             -12.4078
        29        2.0000           -0.4538109             -12.3488
        30        2.0000           -0.4466394             -12.1537
        31        2.0000           -0.4253775             -11.5751
        32        2.0000           -0.4115740             -11.1995
        33        2.0000           -0.3981710             -10.8348 (HOMO)
        34                         -0.2905118              -7.9052 (LUMO)
        35                         -0.0103193              -0.2808
        36                         -0.0039392              -0.1072
        37                          0.0167666               0.4562
        38                          0.0408472               1.1115
        39                          0.0459772               1.2511
        40                          0.0679729               1.8496
        41                          0.0711055               1.9349
        42                          0.0829303               2.2566
        43                          0.0962259               2.6184
        44                          0.1131015               3.0776
       ...                                ...                  ...
        56                          0.5193818              14.1331
      -------------------------------------------------------------
                  HL-Gap            0.1076592 Eh            2.9296 eV
             Fermi-level           -0.3443414 Eh           -9.3700 eV

     #   Z          covCN         q      C6AA      α(0)
     1   6 C        3.740    -0.123    22.944     6.834
     2   6 C        3.718     0.097    19.089     6.241
     3   6 C        3.717     0.089    19.220     6.263
     4   6 C        3.719     0.107    18.937     6.216
     5   6 C        3.722     0.091    19.171     6.253
     6   6 C        2.760     0.181    24.117     8.042
     7   8 O        0.856    -0.300    19.791     5.964
     8   8 O        1.652    -0.406    20.959     6.180
     9   8 O        1.651    -0.431    21.460     6.253
    10   8 O        1.651    -0.420    21.242     6.222
    11   8 O        1.651    -0.437    21.587     6.272
    12   1 H        0.921     0.042     2.423     2.434
    13   1 H        0.922     0.032     2.556     2.500
    14   1 H        0.922     0.057     2.231     2.336
    15   1 H        0.921     0.058     2.225     2.333
    16   1 H        0.921     0.046     2.375     2.410
    17   1 H        0.922     0.034     2.536     2.490
    18   1 H        0.921     0.037     2.489     2.467
    19   1 H        0.925     0.035     2.512     2.479
    20   1 H        0.801     0.297     0.731     1.343
    21   1 H        0.801     0.313     0.683     1.298
    22   1 H        0.801     0.303     0.713     1.327
    23   1 H        0.801     0.298     0.728     1.340

 Mol. C6AA /au·bohr⁶  :       4319.037079
 Mol. C8AA /au·bohr⁸  :      92002.335329
 Mol. α(0) /au        :         95.499397


Wiberg/Mayer (AO) data.
largest (>0.10) Wiberg bond orders for each atom

 ---------------------------------------------------------------------------
     #   Z sym  total        # sym  WBO       # sym  WBO       # sym  WBO
 ---------------------------------------------------------------------------
     1   6 C    3.994 --     2 C    1.000    12 H    0.985    14 H    0.984
                            13 H    0.982
     2   6 C    3.957 --    11 O    1.004     1 C    1.000    15 H    0.957
                             3 C    0.954
     3   6 C    3.962 --    10 O    1.014    16 H    0.958     2 C    0.954
                             4 C    0.952
     4   6 C    3.959 --     9 O    1.011    17 H    0.957     3 C    0.952
                             5 C    0.934
     5   6 C    3.967 --     8 O    1.009     6 C    0.984    18 H    0.940
                             4 C    0.934
     6   6 C    3.923 --     7 O    1.928     5 C    0.984    19 H    0.940
     7   8 O    2.088 --     6 C    1.928
     8   8 O    1.984 --     5 C    1.009    20 H    0.897
     9   8 O    1.983 --     4 C    1.011    21 H    0.881
    10   8 O    1.984 --     3 C    1.014    22 H    0.888
    11   8 O    1.975 --     2 C    1.004    23 H    0.890
    12   1 H    0.998 --     1 C    0.985
    13   1 H    0.999 --     1 C    0.982
    14   1 H    0.997 --     1 C    0.984
    15   1 H    0.996 --     2 C    0.957
    16   1 H    0.998 --     3 C    0.958
    17   1 H    0.999 --     4 C    0.957
    18   1 H    0.998 --     5 C    0.940
    19   1 H    0.999 --     6 C    0.940
    20   1 H    0.912 --     8 O    0.897
    21   1 H    0.902 --     9 O    0.881
    22   1 H    0.908 --    10 O    0.888
    23   1 H    0.911 --    11 O    0.890
 ---------------------------------------------------------------------------

Topologies differ in total number of bonds
Writing topology from bond orders to xtbtopo.mol

molecular dipole:
                 x           y           z       tot (Debye)
 q only:        0.199      -0.220       1.170
   full:        0.518      -0.108       1.649       4.401
molecular quadrupole (traceless):
                xx          xy          yy          xz          yz          zz
 q only:        4.321      -8.260       0.208       3.992       5.041      -4.528
  q+dip:        7.463     -10.404      -0.882       6.515       6.195      -6.581
   full:        7.629     -10.387      -0.694       6.039       6.457      -6.936


           -------------------------------------------------
          | TOTAL ENERGY              -39.239413214785 Eh   |
          | GRADIENT NORM               0.090567389192 Eh/α |
          | HOMO-LUMO GAP               2.929555585015 eV   |
           -------------------------------------------------
########################################################################
[WARNING] Runtime exception occurred
-2- restart_readRestart: Dimension missmatch in restart file.
-1- restart_readRestart: Number of electron missmatch in restart file.
########################################################################

------------------------------------------------------------------------
 unit  open   action     filename
  129 false : read       dft_tmp\mol_544.xyz
  129 false : read       dft_tmp\mol_544.xyz
  129 false : read       dft_tmp\mol_544.xyz
  129 false : read       C:\Users\nkapa\Downloads\xtb-6.7.1pre-windows-x86_64\xtb-6.7.1\share\xtb\param_gfn2-xtb.txt
  129 false : read       xtbrestart
  129 false : replaced   charges
  129 false : replaced   wbo
  129 false : replaced   xtbtopo.mol
  129 false : replaced   xtbrestart

------------------------------------------------------------------------
 * finished run on 2025/06/25 at 12:07:26.562     
------------------------------------------------------------------------
 total:
 * wall-time:     0 d,  0 h,  0 min,  0.240 sec
 *  cpu-time:     0 d,  0 h,  0 min,  0.125 sec
 * ratio c/w:     0.521 speedup
 SCF:
 * wall-time:     0 d,  0 h,  0 min,  0.009 sec
 *  cpu-time:     0 d,  0 h,  0 min,  0.125 sec
 * ratio c/w:    13.889 speedup

normal termination of xtb
