      -----------------------------------------------------------      
     |                   =====================                   |     
     |                           x T B                           |     
     |                   =====================                   |     
     |                         S. Grimme                         |     
     |          Mulliken Center for Theoretical Chemistry        |     
     |                    University of Bonn                     |     
      -----------------------------------------------------------      

   * xtb version 6.7.1pre (5071a88) compiled by 'Marcel@Raven' on 2024-07-23

   xtb is free software: you can redistribute it and/or modify it under
   the terms of the GNU Lesser General Public License as published by
   the Free Software Foundation, either version 3 of the License, or
   (at your option) any later version.
   
   xtb is distributed in the hope that it will be useful,
   but WITHOUT ANY WARRANTY; without even the implied warranty of
   MERCHANTABILITY or FITNESS FOR A PARTICULAR PURPOSE.  See the
   GNU Lesser General Public License for more details.
   
   Cite this work as:
   * C. Bannwarth, E. Caldeweyher, S. Ehlert, A. Hansen, P. Pracht,
     J. Seibert, S. Spicher, S. Grimme, WIREs Comput. Mol. Sci., 2020, 11,
     e01493. DOI: 10.1002/wcms.1493
   
   for GFN2-xTB:
   * C. Bannwarth, S. Ehlert and S. Grimme., J. Chem. Theory Comput., 2019,
     15, 1652-1671. DOI: 10.1021/acs.jctc.8b01176
   for GFN1-xTB:
   * S. Grimme, C. Bannwarth, P. Shushkov, J. Chem. Theory Comput., 2017,
     13, 1989-2009. DOI: 10.1021/acs.jctc.7b00118
   for GFN0-xTB:
   * P. Pracht, E. Caldeweyher, S. Ehlert, S. Grimme, ChemRxiv, 2019, preprint.
     DOI: 10.26434/chemrxiv.8326202.v1
   for GFN-FF:
   * S. Spicher and S. Grimme, Angew. Chem. Int. Ed., 2020, 59, 15665-15673.
     DOI: 10.1002/anie.202004239
   
   for ALPB and GBSA implicit solvation:
   * S. Ehlert, M. Stahn, S. Spicher, S. Grimme, J. Chem. Theory Comput.,
     2021, 17, 4250-4261. DOI: 10.1021/acs.jctc.1c00471
   
   for ddCOSMO and CPCM-X implicit solvation:
   * M. Stahn, S. Ehlert, S. Grimme, J. Phys. Chem. A,
     2023, XX, XXXX-XXXX. DOI: 10.1021/acs.jpca.3c04382
   
   for DFT-D4:
   * E. Caldeweyher, C. Bannwarth and S. Grimme, J. Chem. Phys., 2017,
     147, 034112. DOI: 10.1063/1.4993215
   * E. Caldeweyher, S. Ehlert, A. Hansen, H. Neugebauer, S. Spicher,
     C. Bannwarth and S. Grimme, J. Chem. Phys., 2019, 150, 154122.
     DOI: 10.1063/1.5090222
   * E. Caldeweyher, J.-M. Mewes, S. Ehlert and S. Grimme, Phys. Chem. Chem. Phys.
     2020, 22, 8499-8512. DOI: 10.1039/D0CP00502A
   
   for sTDA-xTB:
   * S. Grimme and C. Bannwarth, J. Chem. Phys., 2016, 145, 054103.
     DOI: 10.1063/1.4959605
   
   in the mass-spec context:
   * V. Asgeirsson, C. Bauer and S. Grimme, Chem. Sci., 2017, 8, 4879.
     DOI: 10.1039/c7sc00601b
   * J. Koopman and S. Grimme, ACS Omega 2019, 4, 12, 15120-15133.
     DOI: 10.1021/acsomega.9b02011
   
   for metadynamics refer to:
   * S. Grimme, J. Chem. Theory Comput., 2019, 155, 2847-2862
     DOI: 10.1021/acs.jctc.9b00143
   
   for SPH calculations refer to:
   * S. Spicher and S. Grimme, J. Chem. Theory Comput., 2021, 17, 1701-1714
     DOI: 10.1021/acs.jctc.0c01306
   
   for ONIOM refer to:
   * C. Plett, A. Katbashev, S. Ehlert, S. Grimme, M. Bursch,
     Phys. Chem. Chem. Phys., 2023, 25, 17860-17868. DOI: 10.1039/D3CP02178E
   
   for DIPRO refer to:
   * J. Kohn, N. Gildemeister, S. Grimme, D. Fazzi, A. Hansen,
     J. Chem. Phys., 2023, just accepted.
   
   for PTB refer to:
   * S. Grimme, M. Mueller, A. Hansen, J. Chem. Phys., 2023, 158, 124111.
     DOI: 10.1063/5.0137838
   
   with help from (in alphabetical order)
   P. Atkinson, C. Bannwarth, F. Bohle, G. Brandenburg, E. Caldeweyher
   M. Checinski, S. Dohm, S. Ehlert, S. Ehrlich, I. Gerasimov, C. Hölzer
   A. Katbashev, J. Kohn, J. Koopman, C. Lavigne, S. Lehtola, F. März, M. Müller,
   F. Musil, H. Neugebauer, J. Pisarek, C. Plett, P. Pracht, F. Pultar,
   J. Seibert, P. Shushkov, S. Spicher, M. Stahn, M. Steiner, T. Strunk,
   J. Stückrath, T. Rose, and J. Unsleber
   
 * started run on 2025/06/25 at 12:06:27.491     
$$$$$$$$$$$$$$$$$$$$$$$$$$$$$$$$$$$$$$$$$$$$$$$$$$$$$$$$$$$$$$$$$$$$$$$$
 CONSTRAINTS & SCANS: DEBUG SECTION
$$$$$$$$$$$$$$$$$$$$$$$$$$$$$$$$$$$$$$$$$$$$$$$$$$$$$$$$$$$$$$$$$$$$$$$$
   ID    Z sym.   atoms
    1    6 C      1, 3-8, 10-16
    2    7 N      2, 9
    3    8 O      17, 19-21
    4   16 S      18
    5    1 H      22-35
$$$$$$$$$$$$$$$$$$$$$$$$$$$$$$$$$$$$$$$$$$$$$$$$$$$$$$$$$$$$$$$$$$$$$$$$

           -------------------------------------------------
          |                Calculation Setup                |
           -------------------------------------------------

          program call               : C:\Users\nkapa\Downloads\xtb-6.7.1pre-windows-x86_64\xtb-6.7.1\bin\xtb.EXE dft_tmp\mol_135.xyz --gfn2 --parallel 8 --verbose
          coordinate file            : dft_tmp\mol_135.xyz
          xtbhome directory          : C:\Users\nkapa\AppData\Roaming\SPB_Data
          path for xtb               : C:\Users\nkapa\Downloads\xtb-6.7.1pre-windows-x86_64\xtb-6.7.1\share\xtb
          xcontrol input file        : dft_tmp\mol_135.xyz
          omp threads                :                     8


           -------------------------------------------------
          |                 G F N 2 - x T B                 |
           -------------------------------------------------

        Reference                      10.1021/acs.jctc.8b01176
      * Hamiltonian:
        H0-scaling (s, p, d)           1.850000    2.230000    2.230000
        zeta-weighting                 0.500000
      * Dispersion:
        s8                             2.700000
        a1                             0.520000
        a2                             5.000000
        s9                             5.000000
      * Repulsion:
        kExp                           1.500000    1.000000
        rExp                           1.000000
      * Coulomb:
        alpha                          2.000000
        third order                    shell-resolved
        anisotropic                    true
        a3                             3.000000
        a5                             4.000000
        cn-shift                       1.200000
        cn-exp                         4.000000
        max-rad                        5.000000


          ...................................................
          :                      SETUP                      :
          :.................................................:
          :  # basis functions                 104          :
          :  # atomic orbitals                 103          :
          :  # shells                           57          :
          :  # electrons                       110          :
          :  max. iterations                   250          :
          :  Hamiltonian                  GFN2-xTB          :
          :  restarted?                      false          :
          :  GBSA solvation                  false          :
          :  PC potential                    false          :
          :  electronic temp.          300.0000000     K    :
          :  accuracy                    1.0000000          :
          :  -> integral cutoff          0.2500000E+02      :
          :  -> integral neglect         0.1000000E-07      :
          :  -> SCF convergence          0.1000000E-05 Eh   :
          :  -> wf. convergence          0.1000000E-03 e    :
          :  Broyden damping             0.4000000          :
          :  net charge                          0          :
          :  unpaired electrons                  0          :
          ...................................................

 iter      E             dE          RMSdq      gap      omega  full diag
   1    -55.3744003 -0.553744E+02  0.102E+01    0.47       0.0  T
   2    -56.4972819 -0.112288E+01  0.110E+01    0.81       1.0  T
   3    -59.0509261 -0.255364E+01  0.659E+00    0.37       1.0  T
   4    -58.6797743  0.371152E+00  0.423E+00    0.16       1.0  T
   5    -58.3858431  0.293931E+00  0.327E+00    0.48       1.0  T
   6    -59.0979180 -0.712075E+00  0.162E+00    0.39       1.0  T
   7    -59.1394884 -0.415704E-01  0.113E+00    0.59       1.0  T
   8    -59.1755040 -0.360156E-01  0.709E-01    0.38       1.0  T
   9    -59.1817302 -0.622619E-02  0.501E-01    0.38       1.0  T
  10    -59.1861741 -0.444387E-02  0.414E-01    0.38       1.0  T
  11    -59.1909966 -0.482253E-02  0.355E-01    0.38       1.0  T
  12    -59.1961795 -0.518282E-02  0.358E-01    0.39       1.0  T
  13    -59.2005979 -0.441841E-02  0.370E-01    0.40       1.0  T
  14    -59.1874142  0.131837E-01  0.388E-01    0.37       1.0  T
  15    -59.2580173 -0.706032E-01  0.669E-01    0.44       1.0  T
  16    -59.1627888  0.952285E-01  0.700E-01    0.28       1.0  T
  17    -59.0871893  0.755995E-01  0.178E+00    0.22       1.0  T
  18    -59.1621970 -0.750077E-01  0.736E-01    0.27       1.0  T
  19    -59.1649609 -0.276392E-02  0.686E-01    0.27       1.0  T
  20    -59.2398782 -0.749173E-01  0.632E-01    0.40       1.0  T
  21    -59.2557711 -0.158929E-01  0.742E-01    0.40       1.0  T
  22    -59.3081369 -0.523658E-01  0.102E+00    0.41       1.0  T
  23    -59.2981951  0.994181E-02  0.971E-01    0.41       1.0  T
  24    -59.2446381  0.535569E-01  0.668E-01    0.40       1.0  T
  25    -59.2010751  0.435631E-01  0.418E-01    0.36       1.0  T
  26    -59.1868958  0.141793E-01  0.451E-01    0.33       1.0  T
  27    -59.1410247  0.458711E-01  0.116E+00    0.25       1.0  T
  28    -59.1194155  0.216092E-01  0.153E+00    0.23       1.0  T
  29    -59.1369932 -0.175776E-01  0.124E+00    0.24       1.0  T
  30    -59.1577749 -0.207817E-01  0.871E-01    0.27       1.0  T
  31    -59.1535018  0.427307E-02  0.939E-01    0.26       1.0  T
  32    -59.1487935  0.470837E-02  0.101E+00    0.25       1.0  T
  33    -59.1485708  0.222700E-03  0.101E+00    0.25       1.0  T
  34    -59.1670855 -0.185147E-01  0.691E-01    0.28       1.0  T
  35    -59.1673952 -0.309725E-03  0.684E-01    0.28       1.0  T
  36    -59.1855560 -0.181608E-01  0.461E-01    0.32       1.0  T
  37    -59.1995892 -0.140332E-01  0.427E-01    0.35       1.0  T
  38    -59.2087383 -0.914917E-02  0.457E-01    0.36       1.0  T
  39    -59.2205118 -0.117735E-01  0.521E-01    0.38       1.0  T
  40    -59.2308523 -0.103405E-01  0.587E-01    0.39       1.0  T
  41    -59.2324708 -0.161845E-02  0.598E-01    0.39       1.0  T
  42    -59.2249151  0.755567E-02  0.548E-01    0.38       1.0  T
  43    -59.2127197  0.121954E-01  0.473E-01    0.37       1.0  T
  44    -59.1996397  0.130801E-01  0.421E-01    0.35       1.0  T
  45    -59.1852368  0.144028E-01  0.464E-01    0.32       1.0  T
  46    -59.1863990 -0.116216E-02  0.455E-01    0.32       1.0  T
  47    -59.1916161 -0.521709E-02  0.428E-01    0.34       1.0  T
  48    -59.1997785 -0.816239E-02  0.421E-01    0.35       1.0  T
  49    -59.2084396 -0.866111E-02  0.449E-01    0.37       1.0  T
  50    -59.2076086  0.830950E-03  0.446E-01    0.37       1.0  T
  51    -59.2012708  0.633781E-02  0.424E-01    0.36       1.0  T
  52    -59.1924044  0.886639E-02  0.425E-01    0.34       1.0  T
  53    -59.2118444 -0.194400E-01  0.466E-01    0.37       1.0  T
  54    -59.2276189 -0.157745E-01  0.562E-01    0.39       1.0  T
  55    -59.2937803 -0.661614E-01  0.947E-01    0.42       1.0  T
  56    -59.8155648 -0.521784E+00  0.239E+00    0.43       1.0  T
  57    -58.9467957  0.868769E+00  0.317E+01    0.92       1.0  T
  58    -86.7643190 -0.278175E+02  0.943E+01    0.23       1.0  T
  59    -71.1884566  0.155759E+02  0.452E+01    0.65       1.0  T
  60    -67.9114810  0.327698E+01  0.788E+00    0.89       1.0  T
  61     26.3947768  0.943063E+02  0.363E+02    2.04       1.0  T
  62     79.7541745  0.533594E+02  0.748E+02    3.03       1.0  T
  63     86.0423809  0.628821E+01  0.848E+02    3.44       1.0  T
  64     90.5311392  0.448876E+01  0.111E+03   14.04       1.0  T
  65     91.1853767  0.654237E+00  0.123E+03    0.98       1.0  T
  66     85.4641904 -0.572119E+01  0.123E+03    1.00       1.0  T
  67     93.9113614  0.844717E+01  0.122E+03    1.74       1.0  T
  68     83.3211334 -0.105902E+02  0.127E+03    5.40       1.0  T
  69     83.1561175 -0.165016E+00  0.124E+03    1.82       1.0  T
  70     89.9545498  0.679843E+01  0.149E+03   12.94       1.0  T
  71     93.2923012  0.333775E+01  0.165E+03    5.15       1.0  T
  72     93.4793222  0.187021E+00  0.165E+03    4.76       1.0  T
  73     84.7511976 -0.872812E+01  0.190E+03   12.78       1.0  T
  74     74.5651129 -0.101861E+02  0.208E+03    6.64       1.0  T
  75     74.2920656 -0.273047E+00  0.211E+03    7.68       1.0  T
  76     73.5489182 -0.743147E+00  0.210E+03    7.66       1.0  T
  77     71.5903156 -0.195860E+01  0.210E+03    5.79       1.0  T
  78     83.2471307  0.116568E+02  0.180E+03   12.65       1.0  T
  79     69.7850677 -0.134621E+02  0.196E+03    6.71       1.0  T
  80     72.3306243  0.254556E+01  0.193E+03    3.05       1.0  T
  81     70.1030845 -0.222754E+01  0.204E+03    5.88       1.0  T
  82     70.8017121  0.698628E+00  0.197E+03    6.06       1.0  T
  83     69.9718010 -0.829911E+00  0.204E+03    5.16       1.0  T
  84     70.0026180  0.308171E-01  0.201E+03    5.77       1.0  T
  85     77.3729938  0.737038E+01  0.193E+03    1.87       1.0  T
  86     81.9027739  0.452978E+01  0.181E+03    6.70       1.0  T
  87     64.4656947 -0.174371E+02  0.201E+03    5.60       1.0  T
  88     65.3400714  0.874377E+00  0.207E+03   12.09       1.0  T
  89     65.2976490 -0.424224E-01  0.207E+03   12.38       1.0  T
  90     74.2055954  0.890795E+01  0.191E+03    1.26       1.0  T
  91     63.0291766 -0.111764E+02  0.200E+03   11.23       1.0  T
  92     68.0136954  0.498452E+01  0.193E+03    0.16       1.0  T
  93     70.5489675  0.253527E+01  0.192E+03    0.52       1.0  T
  94     72.1588277  0.160986E+01  0.188E+03    0.92       1.0  T
  95     74.4115142  0.225269E+01  0.177E+03    2.84       1.0  T
  96     76.2198806  0.180837E+01  0.162E+03    5.00       1.0  T
  97     62.3223149 -0.138976E+02  0.209E+03   18.50       1.0  T
  98     71.5375137  0.921520E+01  0.168E+03    3.69       1.0  T
  99     65.7930062 -0.574451E+01  0.234E+03   21.19       1.0  T
 100     81.6571791  0.158642E+02  0.158E+03    2.72       1.0  T
 101     65.0608499 -0.165963E+02  0.239E+03   23.32       1.0  T
 102     60.5785311 -0.448232E+01  0.184E+03    6.52       1.0  T
 103     69.4473695  0.886884E+01  0.280E+03    4.24       1.0  T
 104     57.6196117 -0.118278E+02  0.178E+03    7.52       1.0  T
 105     87.3416330  0.297220E+02  0.390E+03   25.77       1.0  T
 106     32.2241030 -0.551175E+02  0.125E+03    4.21       1.0  T
 107    -28.2307762 -0.604549E+02  0.814E+02    0.68       1.0  T
 108     70.2722294  0.985030E+02  0.290E+03    2.19       1.0  T
 109     59.8607257 -0.104115E+02  0.196E+03    3.95       1.0  T
 110     72.8694219  0.130087E+02  0.315E+03   18.60       1.0  T
 111     22.1207980 -0.507486E+02  0.141E+03    1.36       1.0  T
 112     13.0807125 -0.904009E+01  0.139E+03    1.98       1.0  T
 113     59.2387154  0.461580E+02  0.244E+03    5.29       1.0  T
 114      6.5103423 -0.527284E+02  0.115E+03    0.41       1.0  T
 115     60.9288508  0.544185E+02  0.250E+03    7.62       1.0  T
 116    170.3705211  0.109442E+03  0.441E+02    1.99       1.0  T
 117     98.7361596 -0.716344E+02  0.478E+03   71.02       1.0  T
 118     51.8244526 -0.469117E+02  0.192E+03    0.81       1.0  T
 119    100.1917351  0.483673E+02  0.111E+03    4.85       1.0  T
 120     95.2756490 -0.491609E+01  0.483E+03   88.21       1.0  T
 121     71.2658058 -0.240098E+02  0.354E+03   40.89       1.0  T
 122     35.9803735 -0.352854E+02  0.129E+03    0.24       1.0  T
 123     85.4191101  0.494387E+02  0.428E+03   73.69       1.0  T
 124     57.3392612 -0.280798E+02  0.124E+03    9.22       1.0  T
 125     84.2771684  0.269379E+02  0.409E+03   45.24       1.0  T
 126     47.2718602 -0.370053E+02  0.205E+03    3.95       1.0  T
 127     48.5047340  0.123287E+01  0.183E+03    0.34       1.0  T
 128    147.0127181  0.985080E+02  0.748E+02   11.02       1.0  T
 129     64.9927995 -0.820199E+02  0.139E+03   16.87       1.0  T
 130     45.3647286 -0.196281E+02  0.230E+03    5.82       1.0  T
 131     93.1724071  0.478077E+02  0.492E+02   11.82       1.0  T
 132     61.4188406 -0.317536E+02  0.324E+03    6.27       1.0  T
 133    142.3349106  0.809161E+02  0.902E+02   13.10       1.0  T
 134     46.7558714 -0.955790E+02  0.262E+03    5.70       1.0  T
 135     79.7050903  0.329492E+02  0.170E+03    3.73       1.0  T
 136     71.3070300 -0.839806E+01  0.159E+03   10.74       1.0  T
 137     77.4722569  0.616523E+01  0.197E+03    8.52       1.0  T
 138     72.7495787 -0.472268E+01  0.162E+03    2.48       1.0  T
 139     56.2378411 -0.165117E+02  0.222E+03    0.79       1.0  T
 140     86.9428121  0.307050E+02  0.144E+03   13.58       1.0  T
 141     52.2863502 -0.346565E+02  0.305E+03    3.62       1.0  T
 142    109.7046371  0.574183E+02  0.587E+02   23.20       1.0  T
 143    114.3293895  0.462475E+01  0.647E+02   27.76       1.0  T
 144    125.0317128  0.107023E+02  0.988E+02   28.05       1.0  T
 145     98.1769206 -0.268548E+02  0.570E+02   11.10       1.0  T
 146    114.1061326  0.159292E+02  0.705E+02   31.86       1.0  T
 147     57.6720427 -0.564341E+02  0.176E+03   15.60       1.0  T
 148     55.6498522 -0.202219E+01  0.198E+03    7.31       1.0  T
 149     54.9914299 -0.658422E+00  0.216E+03    2.50       1.0  T
 150     50.9069236 -0.408451E+01  0.289E+03    6.17       1.0  T
 151    126.6832108  0.757763E+02  0.101E+03   40.59       1.0  T
 152    110.9600997 -0.157231E+02  0.586E+02    5.57       1.0  T
 153    117.5451492  0.658505E+01  0.625E+02    2.77       1.0  T
 154    127.5115675  0.996642E+01  0.743E+02    7.51       1.0  T
 155    132.1678182  0.465625E+01  0.902E+02    6.29       1.0  T
 156    122.0938542 -0.100740E+02  0.682E+02   23.89       1.0  T
 157    122.9847493  0.890895E+00  0.171E+03   39.49       1.0  T
 158    120.7737091 -0.221104E+01  0.228E+03    3.00       1.0  T
 159    106.2703933 -0.145033E+02  0.281E+03   60.95       1.0  T
 160    106.4952694  0.224876E+00  0.348E+03   32.95       1.0  T
 161    106.6196692  0.124400E+00  0.339E+03   45.85       1.0  T
 162    112.0997118  0.548004E+01  0.161E+03   27.24       1.0  T
 163    122.7161594  0.106164E+02  0.112E+03    6.43       1.0  T
 164    127.5975148  0.488136E+01  0.102E+03    9.92       1.0  T
 165    126.0499288 -0.154759E+01  0.794E+02   16.45       1.0  T
 166    129.4503876  0.340046E+01  0.106E+03    3.81       1.0  T
 167    130.0411607  0.590773E+00  0.899E+02    2.58       1.0  T
 168    133.1104001  0.306924E+01  0.979E+02    9.31       1.0  T
 169    121.1911520 -0.119192E+02  0.141E+03   22.40       1.0  T
 170    120.6770376 -0.514114E+00  0.137E+03    2.19       1.0  T
 171    127.1692991  0.649226E+01  0.216E+03   63.93       1.0  T
 172    124.9171656 -0.225213E+01  0.196E+03   21.27       1.0  T
 173    118.0986095 -0.681856E+01  0.139E+03   49.42       1.0  T
 174    117.5921062 -0.506503E+00  0.138E+03   45.48       1.0  T
 175    124.1646413  0.657254E+01  0.218E+03   33.14       1.0  T
 176    121.9806896 -0.218395E+01  0.169E+03   76.38       1.0  T
 177    122.1163476  0.135658E+00  0.179E+03   56.65       1.0  T
 178    113.1711090 -0.894524E+01  0.202E+03   23.64       1.0  T
 179    112.5552965 -0.615812E+00  0.195E+03   23.07       1.0  T
 180    104.6737536 -0.788154E+01  0.207E+03   18.20       1.0  T
 181    103.8764300 -0.797324E+00  0.197E+03    7.25       1.0  T
 182    101.7270136 -0.214942E+01  0.220E+03   33.00       1.0  T
 183    108.7646532  0.703764E+01  0.174E+03    8.88       1.0  T
 184     99.9598392 -0.880481E+01  0.208E+03   37.20       1.0  T
 185     98.7336490 -0.122619E+01  0.172E+03   13.28       1.0  T
 186    100.8602113  0.212656E+01  0.231E+03   55.50       1.0  T
 187     95.4548473 -0.540536E+01  0.185E+03   22.05       1.0  T
 188     92.5107823 -0.294407E+01  0.171E+03    8.88       1.0  T
 189     96.9141130  0.440333E+01  0.203E+03   42.63       1.0  T
 190     93.4793468 -0.343477E+01  0.184E+03   26.07       1.0  T
 191     90.3239979 -0.315535E+01  0.172E+03   16.58       1.0  T
 192     92.4435389  0.211954E+01  0.191E+03   35.44       1.0  T
 193     86.7887651 -0.565477E+01  0.174E+03    7.40       1.0  T
 194     93.3508319  0.656207E+01  0.228E+03   22.62       1.0  T
 195     71.5160456 -0.218348E+02  0.160E+03   10.16       1.0  T
 196     96.8054924  0.252894E+02  0.354E+03   44.99       1.0  T
 197     30.5033690 -0.663021E+02  0.195E+02    0.96       1.0  T
 198    117.5288412  0.870255E+02  0.358E+03   32.81       1.0  T
 199     10.5683458 -0.106960E+03  0.266E+02    0.87       1.0  T
 200     97.6873210  0.871190E+02  0.323E+03   62.84       1.0  T
 201     -8.3229814 -0.106010E+03  0.519E+02    1.77       1.0  T
 202     14.9035101  0.232265E+02  0.134E+02    2.10       1.0  T
 203     44.6069854  0.297035E+02  0.550E+02    3.01       1.0  T
 204     28.7824357 -0.158245E+02  0.481E+02    1.27       1.0  T
 205    -16.7404158 -0.455229E+02  0.258E+02    1.65       1.0  T
 206     58.2453320  0.749857E+02  0.796E+02   10.34       1.0  T
 207     63.7465816  0.550125E+01  0.964E+02    6.30       1.0  T
 208     82.6056261  0.188590E+02  0.173E+03    1.94       1.0  T
 209     70.1595623 -0.124461E+02  0.138E+03   21.10       1.0  T
 210     58.1878462 -0.119717E+02  0.118E+03    5.83       1.0  T
 211     75.7477518  0.175599E+02  0.154E+03   29.59       1.0  T
 212     70.1996426 -0.554811E+01  0.142E+03   25.14       1.0  T
 213     63.9106310 -0.628901E+01  0.133E+03    9.02       1.0  T
 214     67.4638651  0.355323E+01  0.144E+03    6.19       1.0  T
 215     42.0921744 -0.253717E+02  0.125E+03    2.14       1.0  T
 216     15.1188741 -0.269733E+02  0.101E+03    0.75       1.0  T
 217      1.2688441 -0.138500E+02  0.904E+02    1.59       1.0  T
 218     24.0337352  0.227649E+02  0.106E+03    1.25       1.0  T
 219     -6.7934449 -0.308272E+02  0.849E+02    0.91       1.0  T
 220     19.0693122  0.258628E+02  0.957E+02    1.98       1.0  T
 221     39.5608359  0.204915E+02  0.114E+03    3.27       1.0  T
 222     58.7712192  0.192104E+02  0.127E+03    4.91       1.0  T
 223    -10.0206120 -0.687918E+02  0.821E+02    0.73       1.0  T
 224    -27.4846229 -0.174640E+02  0.377E+02    0.74       1.0  T
 225     78.0514912  0.105536E+03  0.484E+02   10.99       1.0  T
 226     69.9760851 -0.807541E+01  0.148E+03   21.50       1.0  T
 227     42.1350889 -0.278410E+02  0.121E+03    2.06       1.0  T
 228    -21.4496300 -0.635847E+02  0.576E+02    1.02       1.0  T
 229    -25.8285356 -0.437891E+01  0.663E+02    0.35       1.0  T
 230     14.3597669  0.401883E+02  0.919E+02    2.28       1.0  T
 231     13.5155794 -0.844187E+00  0.919E+02    1.51       1.0  T
 232    -14.8025795 -0.283182E+02  0.774E+02    0.57       1.0  T
 233    -26.1581589 -0.113556E+02  0.608E+02    1.36       1.0  T
 234     -8.0033419  0.181548E+02  0.800E+02    0.18       1.0  T
 235     -6.6251031  0.137824E+01  0.777E+02    0.61       1.0  T
 236    -15.7884009 -0.916330E+01  0.755E+02    2.06       1.0  T
 237    -26.5432333 -0.107548E+02  0.664E+02    0.47       1.0  T
 238     28.8662486  0.554095E+02  0.104E+03    2.96       1.0  T
 239    -21.6426480 -0.505089E+02  0.303E+02    0.83       1.0  T
 240    -12.7329418  0.890971E+01  0.814E+02    1.11       1.0  T
 241    -13.7048315 -0.971890E+00  0.801E+02    1.08       1.0  T
 242     53.2909967  0.669958E+02  0.195E+02    0.75       1.0  T
 243     67.1065378  0.138155E+02  0.166E+03    6.60       1.0  T
 244     97.8445303  0.307380E+02  0.319E+02    7.54       1.0  T
 245     70.1922049 -0.276523E+02  0.195E+03    8.52       1.0  T
 246     37.7360188 -0.324562E+02  0.266E+02    3.11       1.0  T
 247     -9.8066464 -0.475427E+02  0.784E+02    0.91       1.0  T
 248     15.9794684  0.257861E+02  0.113E+03    3.02       1.0  T
 249     12.3260740 -0.365339E+01  0.293E+02    0.12       1.0  T
 250     74.5197797  0.621937E+02  0.202E+03    7.21       1.0  T

   *** convergence criteria cannot be satisfied within 250 iterations ***

         #    Occupation            Energy/Eh            Energy/eV
      -------------------------------------------------------------
         1        2.0000      -147986.3057210        -4026912.3471
       ...           ...                  ...                  ...
        49        2.0000            7.9233409             215.6051
        50        2.0000            8.5933430             233.8368
        51        2.0000            9.1794959             249.7868
        52        2.0000            9.4534230             257.2407
        53        2.0000           10.3310008             281.1208
        54        2.0000           10.8401955             294.9767
        55        2.0000           11.0553025             300.8301 (HOMO)
        56                         11.3203696             308.0429 (LUMO)
        57                         11.5949038             315.5134
        58                         12.0723835             328.5063
        59                         12.2085094             332.2104
        60                         12.2583931             333.5679
       ...                                ...                  ...
       103                     128357.8431418         3492794.6939
      -------------------------------------------------------------
                  HL-Gap            0.2650671 Eh            7.2128 eV
             Fermi-level           11.1878360 Eh          304.4365 eV

 SCC (total)                   0 d,  0 h,  0 min,  0.573 sec
 SCC setup                      ...        0 min,  0.000 sec (  0.000%)
 Dispersion                     ...        0 min,  0.000 sec (  0.000%)
 classical contributions        ...        0 min,  0.000 sec (  0.000%)
 integral evaluation            ...        0 min,  0.002 sec (  0.349%)
 iterations                     ...        0 min,  0.567 sec ( 98.953%)
 molecular gradient             ...        0 min,  0.003 sec (  0.524%)
 printout                       ...        0 min,  0.001 sec (  0.175%)

########################################################################
[ERROR] Program stopped due to fatal error
-5- Single point calculation terminated
-4- xtb_calculator_singlepoint: Electronic structure method terminated
-3- scf: Self consistent charge iterator did not converge
-2- restart_readRestart: Dimension missmatch in restart file.
-1- restart_readRestart: Number of electron missmatch in restart file.
########################################################################
abnormal termination of xtb
